k-points along hexagonal high symmetry lines
 21
line
rec
0.000 0.000    0.000  ! \Gamma 
0.000 0.500 0.000 !M

0.000 0.500 0.000 !M
0.3333333333 0.66666666667 0.000 !K

0.3333333333 0.66666666667 0.000 !K
0.000 0.000 0.000 !\Gamma
