HAT2Cu3                                 
   1.00000000000000     
    13.1483535244542189   -6.5298522023941405    0.0000000000000000
    13.1483535244542189    6.5298522023941405    0.0000000000000000
     0.0000000000000000    0.0000000000000000   15.0000000000000000
   C    Cu   H    N 
    24     3    12    12
Direct
  0.2384597074702099  0.3429535612165724  0.0000000000000000
  0.3429535612165724  0.2384597074702099  0.0000000000000000
  0.6303173385792759  0.1484260619790438 -0.0000000000000000
  0.2562141700894002  0.1487356716031022 -0.0000000000000000
  0.8368085550238545  0.9460482559768263  0.0000000000000000
  0.3696851147133405  0.8515744901888249  0.0000000000000000
  0.7288307788921861  0.1408232483122709  0.0000000000000000
  0.2643048860133461  0.0455384363297010  0.0000000000000000
  0.9460482559768263  0.8368085550238545 -0.0000000000000000
  0.2711720395334774  0.8591768619081984 -0.0000000000000000
  0.1408232483122709  0.7288307788921861 -0.0000000000000000
  0.7356929054456487  0.9544603021982770 -0.0000000000000000
  0.1631891657857198  0.0539497745339193  0.0000000000000000
  0.8591768619081984  0.2711720395334774 -0.0000000000000000
  0.1484260619790438  0.6303173385792759  0.0000000000000000
  0.0539497745339193  0.1631891657857198  0.0000000000000000
  0.8512630974887437  0.7437834040917650  0.0000000000000000
  0.8515744901888249  0.3696851147133405 -0.0000000000000000
  0.7615403244923046  0.6570466119747022  0.0000000000000000
  0.0455384363297010  0.2643048860133461  0.0000000000000000
  0.7437834040917650  0.8512630974887437  0.0000000000000000
  0.6570466119747022  0.7615403244923046  0.0000000000000000
  0.9544603021982770  0.7356929054456487  0.0000000000000000
  0.1487356716031022  0.2562141700894002 -0.0000000000000000
  0.0000005714593101  0.0000005714593101  0.0000000000000000
  0.0000022456402817  0.4999973410497134  0.0000000000000000
  0.4999973410497134  0.0000022456402817  0.0000000000000000
  0.5786898843696856  0.7694516313828210  0.0000000000000000
  0.2305479350202482  0.4213113484251373 -0.0000000000000000
  0.4213113484251373  0.2305479350202482  0.0000000000000000
  0.7694516313828210  0.5786898843696856  0.0000000000000000
  0.5476544638432900  0.2331146962315885 -0.0000000000000000
  0.4523480504709353  0.7668858162998051 -0.0000000000000000
  0.7209986677285523  0.2190410973886735 -0.0000000000000000
  0.2790052662441971  0.7809595353832200 -0.0000000000000000
  0.7668858162998051  0.4523480504709353  0.0000000000000000
  0.2190410973886735  0.7209986677285523  0.0000000000000000
  0.7809595353832200  0.2790052662441971  0.0000000000000000
  0.2331146962315885  0.5476544638432900  0.0000000000000000
  0.6445689701849270  0.8615953322889863  0.0000000000000000
  0.9435688746728986  0.3694266258786096  0.0000000000000000
  0.8615953322889863  0.6445689701849270 -0.0000000000000000
  0.1384063228657896  0.3554275179622558  0.0000000000000000
  0.0564326982614460  0.6305735237197260  0.0000000000000000
  0.0402079924860668  0.8352286630416359  0.0000000000000000
  0.3694266258786096  0.9435688746728986 -0.0000000000000000
  0.8352286630416359  0.0402079924860668  0.0000000000000000
  0.3554275179622558  0.1384063228657896  0.0000000000000000
  0.6305735237197260  0.0564326982614460 -0.0000000000000000
  0.9597888825800430  0.1647712812794609  0.0000000000000000
  0.1647712812794609  0.9597888825800430  0.0000000000000000
 
  0.00000000E+00  0.00000000E+00  0.00000000E+00
  0.00000000E+00  0.00000000E+00  0.00000000E+00
  0.00000000E+00  0.00000000E+00  0.00000000E+00
  0.00000000E+00  0.00000000E+00  0.00000000E+00
  0.00000000E+00  0.00000000E+00  0.00000000E+00
  0.00000000E+00  0.00000000E+00  0.00000000E+00
  0.00000000E+00  0.00000000E+00  0.00000000E+00
  0.00000000E+00  0.00000000E+00  0.00000000E+00
  0.00000000E+00  0.00000000E+00  0.00000000E+00
  0.00000000E+00  0.00000000E+00  0.00000000E+00
  0.00000000E+00  0.00000000E+00  0.00000000E+00
  0.00000000E+00  0.00000000E+00  0.00000000E+00
  0.00000000E+00  0.00000000E+00  0.00000000E+00
  0.00000000E+00  0.00000000E+00  0.00000000E+00
  0.00000000E+00  0.00000000E+00  0.00000000E+00
  0.00000000E+00  0.00000000E+00  0.00000000E+00
  0.00000000E+00  0.00000000E+00  0.00000000E+00
  0.00000000E+00  0.00000000E+00  0.00000000E+00
  0.00000000E+00  0.00000000E+00  0.00000000E+00
  0.00000000E+00  0.00000000E+00  0.00000000E+00
  0.00000000E+00  0.00000000E+00  0.00000000E+00
  0.00000000E+00  0.00000000E+00  0.00000000E+00
  0.00000000E+00  0.00000000E+00  0.00000000E+00
  0.00000000E+00  0.00000000E+00  0.00000000E+00
  0.00000000E+00  0.00000000E+00  0.00000000E+00
  0.00000000E+00  0.00000000E+00  0.00000000E+00
  0.00000000E+00  0.00000000E+00  0.00000000E+00
  0.00000000E+00  0.00000000E+00  0.00000000E+00
  0.00000000E+00  0.00000000E+00  0.00000000E+00
  0.00000000E+00  0.00000000E+00  0.00000000E+00
  0.00000000E+00  0.00000000E+00  0.00000000E+00
  0.00000000E+00  0.00000000E+00  0.00000000E+00
  0.00000000E+00  0.00000000E+00  0.00000000E+00
  0.00000000E+00  0.00000000E+00  0.00000000E+00
  0.00000000E+00  0.00000000E+00  0.00000000E+00
  0.00000000E+00  0.00000000E+00  0.00000000E+00
  0.00000000E+00  0.00000000E+00  0.00000000E+00
  0.00000000E+00  0.00000000E+00  0.00000000E+00
  0.00000000E+00  0.00000000E+00  0.00000000E+00
  0.00000000E+00  0.00000000E+00  0.00000000E+00
  0.00000000E+00  0.00000000E+00  0.00000000E+00
  0.00000000E+00  0.00000000E+00  0.00000000E+00
  0.00000000E+00  0.00000000E+00  0.00000000E+00
  0.00000000E+00  0.00000000E+00  0.00000000E+00
  0.00000000E+00  0.00000000E+00  0.00000000E+00
  0.00000000E+00  0.00000000E+00  0.00000000E+00
  0.00000000E+00  0.00000000E+00  0.00000000E+00
  0.00000000E+00  0.00000000E+00  0.00000000E+00
  0.00000000E+00  0.00000000E+00  0.00000000E+00
  0.00000000E+00  0.00000000E+00  0.00000000E+00
  0.00000000E+00  0.00000000E+00  0.00000000E+00
