Cu3 Ag75 H37 C24 N12                    
   1.00000000000000     
    14.6550000000000011    0.0000000000000000    0.0000000000000000
     7.3275000000000006   12.6916022924609493    0.0000000000000000
     0.0000000000000000    0.0000000000000000   32.7551300689273077
   Cu   Ag   H    C    N 
     3    75    37    24    12
Selective dynamics
Direct
  0.9979371745052406  0.9979371745052406  0.2238456893663248   T   T   T
  0.0338132860193977  0.5004408489748426  0.2234096513319554   T   T   T
  0.5004408489748426  0.0338132860193977  0.2234096513319554   T   T   T
  0.0000000000000000  0.0000000000000000  0.0000000000000000   F   F   F
  0.0000000000000000  0.2000000000000028  0.0000000000000000   F   F   F
  0.0000000000000000  0.3999999999999986  0.0000000000000000   F   F   F
  0.0000000000000000  0.6000000000000014  0.0000000000000000   F   F   F
  0.0000000000000000  0.7999999999999972  0.0000000000000000   F   F   F
  0.2000000000000028  0.0000000000000000  0.0000000000000000   F   F   F
  0.2000000000000028  0.2000000000000028  0.0000000000000000   F   F   F
  0.2000000000000028  0.3999999999999986  0.0000000000000000   F   F   F
  0.2000000000000028  0.6000000000000014  0.0000000000000000   F   F   F
  0.2000000000000028  0.7999999999999972  0.0000000000000000   F   F   F
  0.3999999999999986  0.0000000000000000  0.0000000000000000   F   F   F
  0.3999999999999986  0.2000000000000028  0.0000000000000000   F   F   F
  0.3999999999999986  0.3999999999999986  0.0000000000000000   F   F   F
  0.3999999999999986  0.6000000000000014  0.0000000000000000   F   F   F
  0.3999999999999986  0.7999999999999972  0.0000000000000000   F   F   F
  0.6000000000000014  0.0000000000000000  0.0000000000000000   F   F   F
  0.6000000000000014  0.2000000000000028  0.0000000000000000   F   F   F
  0.6000000000000014  0.3999999999999986  0.0000000000000000   F   F   F
  0.6000000000000014  0.6000000000000014  0.0000000000000000   F   F   F
  0.6000000000000014  0.7999999999999972  0.0000000000000000   F   F   F
  0.7999999999999972  0.0000000000000000  0.0000000000000000   F   F   F
  0.7999999999999972  0.2000000000000028  0.0000000000000000   F   F   F
  0.7999999999999972  0.3999999999999986  0.0000000000000000   F   F   F
  0.7999999999999972  0.6000000000000014  0.0000000000000000   F   F   F
  0.7999999999999972  0.7999999999999972  0.0000000000000000   F   F   F
  0.0659390255260503  0.0659390255260503  0.0741056486760726   T   T   T
  0.0657758189054214  0.2671929855668635  0.0737626377361467   T   T   T
  0.0658289869709781  0.4671192483022228  0.0738632590037227   T   T   T
  0.0678778063564977  0.6658010411638459  0.0741336677680149   T   T   T
  0.0673921541420092  0.8656234107781714  0.0743179429582559   T   T   T
  0.2671929855668635  0.0657758189054214  0.0737626377361467   T   T   T
  0.2663966475516826  0.2663966475516826  0.0749985716609735   T   T   T
  0.2661567764589869  0.4655385171350911  0.0748487640722728   T   T   T
  0.2665266924956457  0.6657753829306576  0.0743404728610933   T   T   T
  0.2652623525247690  0.8664399402933282  0.0746392092666040   T   T   T
  0.4671192483022228  0.0658289869709781  0.0738632590037227   T   T   T
  0.4655385171350911  0.2661567764589869  0.0748487640722728   T   T   T
  0.4660860338113177  0.4660860338113177  0.0743858827306074   T   T   T
  0.4657189677091155  0.6661381933121572  0.0740912802099823   T   T   T
  0.4675652376728652  0.8660889865510981  0.0742739791081593   T   T   T
  0.6658010411638459  0.0678778063564977  0.0741336677680149   T   T   T
  0.6657753829306576  0.2665266924956457  0.0743404728610933   T   T   T
  0.6661381933121572  0.4657189677091155  0.0740912802099823   T   T   T
  0.6656138750544718  0.6656138750544718  0.0732912378163112   T   T   T
  0.6652195282068201  0.8674573118142583  0.0733771271326170   T   T   T
  0.8656234107781714  0.0673921541420092  0.0743179429582559   T   T   T
  0.8664399402933282  0.2652623525247690  0.0746392092666040   T   T   T
  0.8660889865510981  0.4675652376728652  0.0742739791081593   T   T   T
  0.8674573118142583  0.6652195282068201  0.0733771271326170   T   T   T
  0.8674090537926519  0.8674090537926519  0.0736449308875842   T   T   T
  0.1339036059582223  0.1339036059582223  0.1433579427713335   T   T   T
  0.1301782345200006  0.3354016629150960  0.1447595288061959   T   T   T
  0.1311959745168777  0.5323457219440028  0.1454482457786286   T   T   T
  0.1341616441327825  0.7318272393854717  0.1455740593388592   T   T   T
  0.1310902649856286  0.9339329375995290  0.1464105930562530   T   T   T
  0.3354016629150960  0.1301782345200006  0.1447595288061959   T   T   T
  0.3329720494662118  0.3329720494662118  0.1464580666473897   T   T   T
  0.3330055287209256  0.5321327613369046  0.1461344302518254   T   T   T
  0.3332198971889000  0.7317473427663661  0.1454237492730742   T   T   T
  0.3343613511669458  0.9309526223811467  0.1441493296559277   T   T   T
  0.5323457219440028  0.1311959745168777  0.1454482457786286   T   T   T
  0.5321327613369046  0.3330055287209256  0.1461344302518254   T   T   T
  0.5323537938534009  0.5323537938534009  0.1464330943665683   T   T   T
  0.5330865715493138  0.7315737918360278  0.1447177154677387   T   T   T
  0.5334684315938839  0.9326708315938352  0.1468763518282757   T   T   T
  0.7318272393854717  0.1341616441327825  0.1455740593388592   T   T   T
  0.7317473427663661  0.3332198971889000  0.1454237492730742   T   T   T
  0.7315737918360278  0.5330865715493138  0.1447177154677387   T   T   T
  0.7322702920843520  0.7322702920843520  0.1420583299056964   T   T   T
  0.7340597093187454  0.9315538032213881  0.1430359177375787   T   T   T
  0.9339329375995290  0.1310902649856286  0.1464105930562530   T   T   T
  0.9309526223811467  0.3343613511669458  0.1441493296559277   T   T   T
  0.9326708315938352  0.5334684315938839  0.1468763518282757   T   T   T
  0.9315538032213881  0.7340597093187454  0.1430359177375787   T   T   T
  0.9340259416205803  0.9340259416205803  0.1451114986424327   T   T   T
  0.1333966271766183  0.1333966271766183  0.9751197072711557   T   T   T
  0.1334941030699036  0.3333956603753278  0.9753758379955778   T   T   T
  0.1331753682127818  0.5331123842134056  0.9752345861815748   T   T   T
  0.1333183220285607  0.7334428210031401  0.9751853022892627   T   T   T
  0.1330366794403803  0.9334647796546409  0.9753934955852996   T   T   T
  0.3333956603753278  0.1334941030699036  0.9753758379955778   T   T   T
  0.3332966444574340  0.3332966444574340  0.9750429225843907   T   T   T
  0.3333509383277546  0.5332658094780292  0.9755189458371586   T   T   T
  0.3333067167650866  0.7337318080400045  0.9753164765399207   T   T   T
  0.3334923228399500  0.9327704437351879  0.9753552626208750   T   T   T
  0.5331123842134056  0.1331753682127818  0.9752345861815748   T   T   T
  0.5332658094780292  0.3333509383277546  0.9755189458371586   T   T   T
  0.5332456396129729  0.5332456396129729  0.9754309682879293   T   T   T
  0.5330748134712325  0.7335942064166437  0.9753290550892449   T   T   T
  0.5331066945642903  0.9337110651784195  0.9752507304623552   T   T   T
  0.7334428210031401  0.1333183220285607  0.9751853022892627   T   T   T
  0.7337318080400045  0.3333067167650866  0.9753164765399207   T   T   T
  0.7335942064166437  0.5330748134712325  0.9753290550892449   T   T   T
  0.7334595005342717  0.7334595005342717  0.9753353458038180   T   T   T
  0.7336073154416275  0.9328046441950384  0.9751681433323370   T   T   T
  0.9334647796546409  0.1330366794403803  0.9753934955852996   T   T   T
  0.9327704437351879  0.3334923228399500  0.9753552626208750   T   T   T
  0.9337110651784195  0.5331066945642903  0.9752507304623552   T   T   T
  0.9328046441950384  0.7336073154416275  0.9751681433323370   T   T   T
  0.9335260418117954  0.9335260418117954  0.9752951674567655   T   T   T
  0.5745048115271647  0.7434588886316469  0.2372069325051432   T   T   T
  0.2598623163769113  0.4262642063297945  0.2346661285217521   T   T   T
  0.4262642063297945  0.2598623163769113  0.2346661285217521   T   T   T
  0.7434588886316469  0.5745048115271647  0.2372069325051432   T   T   T
  0.5771861712545773  0.1888910398789889  0.2309339593650274   T   T   T
  0.4257839401986974  0.8148843448232860  0.2334685003300584   T   T   T
  0.7443901213442224  0.1867050475412549  0.2333759043050428   T   T   T
  0.2587589569178497  0.8135352621570634  0.2338927052756067   T   T   T
  0.8148843448232860  0.4257839401986974  0.2334685003300584   T   T   T
  0.1867050475412549  0.7443901213442224  0.2333759043050428   T   T   T
  0.8135352621570634  0.2587589569178497  0.2338927052756067   T   T   T
  0.1888910398789889  0.5771861712545773  0.2309339593650274   T   T   T
  0.2584211412777227  0.3527942771820871  0.2355272893067631   T   T   T
  0.3527942771820871  0.2584211412777227  0.2355272893067631   T   T   T
  0.6497867878081137  0.1132986891846493  0.2332655935836992   T   T   T
  0.2636522702176695  0.1666771911355535  0.2401100968234902   T   T   T
  0.8340912566369799  0.9326382524919535  0.2391761442501369   T   T   T
  0.3519506187109463  0.8895427351119185  0.2354577400068967   T   T   T
  0.7454900487542510  0.1119972356848174  0.2338820744919247   T   T   T
  0.2630489563192805  0.0684464495230509  0.2404961435782890   T   T   T
  0.9326382524919535  0.8340912566369799  0.2391761442501369   T   T   T
  0.2567692825454548  0.8886786044122494  0.2356282917261296   T   T   T
  0.1119972356848174  0.7454900487542510  0.2338820744919247   T   T   T
  0.7367438739219725  0.9332571525198372  0.2385795050893969   T   T   T
  0.1658130491003386  0.0680910637105288  0.2396952207898731   T   T   T
  0.8886786044122494  0.2567692825454548  0.2356282917261296   T   T   T
  0.1132986891846493  0.6497867878081137  0.2332655935836992   T   T   T
  0.0680910637105288  0.1658130491003386  0.2396952207898731   T   T   T
  0.8349466718336866  0.7373353565854851  0.2397694258121893   T   T   T
  0.8895427351119185  0.3519506187109463  0.2354577400068967   T   T   T
  0.7442621403889631  0.6484850334955491  0.2379088436746727   T   T   T
  0.0684464495230509  0.2630489563192805  0.2404961435782890   T   T   T
  0.7373353565854851  0.8349466718336866  0.2397694258121893   T   T   T
  0.6484850334955491  0.7442621403889631  0.2379088436746727   T   T   T
  0.9332571525198372  0.7367438739219725  0.2385795050893969   T   T   T
  0.1666771911355535  0.2636522702176695  0.2401100968234902   T   T   T
  0.6430338398949885  0.8382795454949266  0.2391861662297046   T   T   T
  0.9780280773903948  0.3575134058581956  0.2390173069369344   T   T   T
  0.8382795454949266  0.6430338398949885  0.2391861662297046   T   T   T
  0.1622224065169735  0.3595352016062569  0.2373354636457957   T   T   T
  0.0255302983293887  0.6412370399404266  0.2361686214196058   T   T   T
  0.0225249890982983  0.8403382666461132  0.2377975072553204   T   T   T
  0.3575134058581956  0.9780280773903948  0.2390173069369344   T   T   T
  0.8403382666461132  0.0225249890982983  0.2377975072553204   T   T   T
  0.3595352016062569  0.1622224065169735  0.2373354636457957   T   T   T
  0.6412370399404266  0.0255302983293887  0.2361686214196058   T   T   T
  0.9768196047306890  0.1619516262981490  0.2382374596928622   T   T   T
  0.1619516262981490  0.9768196047306961  0.2382374596928622   T   T   T
 
  0.00000000E+00  0.00000000E+00  0.00000000E+00
  0.00000000E+00  0.00000000E+00  0.00000000E+00
  0.00000000E+00  0.00000000E+00  0.00000000E+00
  0.00000000E+00  0.00000000E+00  0.00000000E+00
  0.00000000E+00  0.00000000E+00  0.00000000E+00
  0.00000000E+00  0.00000000E+00  0.00000000E+00
  0.00000000E+00  0.00000000E+00  0.00000000E+00
  0.00000000E+00  0.00000000E+00  0.00000000E+00
  0.00000000E+00  0.00000000E+00  0.00000000E+00
  0.00000000E+00  0.00000000E+00  0.00000000E+00
  0.00000000E+00  0.00000000E+00  0.00000000E+00
  0.00000000E+00  0.00000000E+00  0.00000000E+00
  0.00000000E+00  0.00000000E+00  0.00000000E+00
  0.00000000E+00  0.00000000E+00  0.00000000E+00
  0.00000000E+00  0.00000000E+00  0.00000000E+00
  0.00000000E+00  0.00000000E+00  0.00000000E+00
  0.00000000E+00  0.00000000E+00  0.00000000E+00
  0.00000000E+00  0.00000000E+00  0.00000000E+00
  0.00000000E+00  0.00000000E+00  0.00000000E+00
  0.00000000E+00  0.00000000E+00  0.00000000E+00
  0.00000000E+00  0.00000000E+00  0.00000000E+00
  0.00000000E+00  0.00000000E+00  0.00000000E+00
  0.00000000E+00  0.00000000E+00  0.00000000E+00
  0.00000000E+00  0.00000000E+00  0.00000000E+00
  0.00000000E+00  0.00000000E+00  0.00000000E+00
  0.00000000E+00  0.00000000E+00  0.00000000E+00
  0.00000000E+00  0.00000000E+00  0.00000000E+00
  0.00000000E+00  0.00000000E+00  0.00000000E+00
  0.00000000E+00  0.00000000E+00  0.00000000E+00
  0.00000000E+00  0.00000000E+00  0.00000000E+00
  0.00000000E+00  0.00000000E+00  0.00000000E+00
  0.00000000E+00  0.00000000E+00  0.00000000E+00
  0.00000000E+00  0.00000000E+00  0.00000000E+00
  0.00000000E+00  0.00000000E+00  0.00000000E+00
  0.00000000E+00  0.00000000E+00  0.00000000E+00
  0.00000000E+00  0.00000000E+00  0.00000000E+00
  0.00000000E+00  0.00000000E+00  0.00000000E+00
  0.00000000E+00  0.00000000E+00  0.00000000E+00
  0.00000000E+00  0.00000000E+00  0.00000000E+00
  0.00000000E+00  0.00000000E+00  0.00000000E+00
  0.00000000E+00  0.00000000E+00  0.00000000E+00
  0.00000000E+00  0.00000000E+00  0.00000000E+00
  0.00000000E+00  0.00000000E+00  0.00000000E+00
  0.00000000E+00  0.00000000E+00  0.00000000E+00
  0.00000000E+00  0.00000000E+00  0.00000000E+00
  0.00000000E+00  0.00000000E+00  0.00000000E+00
  0.00000000E+00  0.00000000E+00  0.00000000E+00
  0.00000000E+00  0.00000000E+00  0.00000000E+00
  0.00000000E+00  0.00000000E+00  0.00000000E+00
  0.00000000E+00  0.00000000E+00  0.00000000E+00
  0.00000000E+00  0.00000000E+00  0.00000000E+00
  0.00000000E+00  0.00000000E+00  0.00000000E+00
  0.00000000E+00  0.00000000E+00  0.00000000E+00
  0.00000000E+00  0.00000000E+00  0.00000000E+00
  0.00000000E+00  0.00000000E+00  0.00000000E+00
  0.00000000E+00  0.00000000E+00  0.00000000E+00
  0.00000000E+00  0.00000000E+00  0.00000000E+00
  0.00000000E+00  0.00000000E+00  0.00000000E+00
  0.00000000E+00  0.00000000E+00  0.00000000E+00
  0.00000000E+00  0.00000000E+00  0.00000000E+00
  0.00000000E+00  0.00000000E+00  0.00000000E+00
  0.00000000E+00  0.00000000E+00  0.00000000E+00
  0.00000000E+00  0.00000000E+00  0.00000000E+00
  0.00000000E+00  0.00000000E+00  0.00000000E+00
  0.00000000E+00  0.00000000E+00  0.00000000E+00
  0.00000000E+00  0.00000000E+00  0.00000000E+00
  0.00000000E+00  0.00000000E+00  0.00000000E+00
  0.00000000E+00  0.00000000E+00  0.00000000E+00
  0.00000000E+00  0.00000000E+00  0.00000000E+00
  0.00000000E+00  0.00000000E+00  0.00000000E+00
  0.00000000E+00  0.00000000E+00  0.00000000E+00
  0.00000000E+00  0.00000000E+00  0.00000000E+00
  0.00000000E+00  0.00000000E+00  0.00000000E+00
  0.00000000E+00  0.00000000E+00  0.00000000E+00
  0.00000000E+00  0.00000000E+00  0.00000000E+00
  0.00000000E+00  0.00000000E+00  0.00000000E+00
  0.00000000E+00  0.00000000E+00  0.00000000E+00
  0.00000000E+00  0.00000000E+00  0.00000000E+00
  0.00000000E+00  0.00000000E+00  0.00000000E+00
  0.00000000E+00  0.00000000E+00  0.00000000E+00
  0.00000000E+00  0.00000000E+00  0.00000000E+00
  0.00000000E+00  0.00000000E+00  0.00000000E+00
  0.00000000E+00  0.00000000E+00  0.00000000E+00
  0.00000000E+00  0.00000000E+00  0.00000000E+00
  0.00000000E+00  0.00000000E+00  0.00000000E+00
  0.00000000E+00  0.00000000E+00  0.00000000E+00
  0.00000000E+00  0.00000000E+00  0.00000000E+00
  0.00000000E+00  0.00000000E+00  0.00000000E+00
  0.00000000E+00  0.00000000E+00  0.00000000E+00
  0.00000000E+00  0.00000000E+00  0.00000000E+00
  0.00000000E+00  0.00000000E+00  0.00000000E+00
  0.00000000E+00  0.00000000E+00  0.00000000E+00
  0.00000000E+00  0.00000000E+00  0.00000000E+00
  0.00000000E+00  0.00000000E+00  0.00000000E+00
  0.00000000E+00  0.00000000E+00  0.00000000E+00
  0.00000000E+00  0.00000000E+00  0.00000000E+00
  0.00000000E+00  0.00000000E+00  0.00000000E+00
  0.00000000E+00  0.00000000E+00  0.00000000E+00
  0.00000000E+00  0.00000000E+00  0.00000000E+00
  0.00000000E+00  0.00000000E+00  0.00000000E+00
  0.00000000E+00  0.00000000E+00  0.00000000E+00
  0.00000000E+00  0.00000000E+00  0.00000000E+00
  0.00000000E+00  0.00000000E+00  0.00000000E+00
  0.00000000E+00  0.00000000E+00  0.00000000E+00
  0.00000000E+00  0.00000000E+00  0.00000000E+00
  0.00000000E+00  0.00000000E+00  0.00000000E+00
  0.00000000E+00  0.00000000E+00  0.00000000E+00
  0.00000000E+00  0.00000000E+00  0.00000000E+00
  0.00000000E+00  0.00000000E+00  0.00000000E+00
  0.00000000E+00  0.00000000E+00  0.00000000E+00
  0.00000000E+00  0.00000000E+00  0.00000000E+00
  0.00000000E+00  0.00000000E+00  0.00000000E+00
  0.00000000E+00  0.00000000E+00  0.00000000E+00
  0.00000000E+00  0.00000000E+00  0.00000000E+00
  0.00000000E+00  0.00000000E+00  0.00000000E+00
  0.00000000E+00  0.00000000E+00  0.00000000E+00
  0.00000000E+00  0.00000000E+00  0.00000000E+00
  0.00000000E+00  0.00000000E+00  0.00000000E+00
  0.00000000E+00  0.00000000E+00  0.00000000E+00
  0.00000000E+00  0.00000000E+00  0.00000000E+00
  0.00000000E+00  0.00000000E+00  0.00000000E+00
  0.00000000E+00  0.00000000E+00  0.00000000E+00
  0.00000000E+00  0.00000000E+00  0.00000000E+00
  0.00000000E+00  0.00000000E+00  0.00000000E+00
  0.00000000E+00  0.00000000E+00  0.00000000E+00
  0.00000000E+00  0.00000000E+00  0.00000000E+00
  0.00000000E+00  0.00000000E+00  0.00000000E+00
  0.00000000E+00  0.00000000E+00  0.00000000E+00
  0.00000000E+00  0.00000000E+00  0.00000000E+00
  0.00000000E+00  0.00000000E+00  0.00000000E+00
  0.00000000E+00  0.00000000E+00  0.00000000E+00
  0.00000000E+00  0.00000000E+00  0.00000000E+00
  0.00000000E+00  0.00000000E+00  0.00000000E+00
  0.00000000E+00  0.00000000E+00  0.00000000E+00
  0.00000000E+00  0.00000000E+00  0.00000000E+00
  0.00000000E+00  0.00000000E+00  0.00000000E+00
  0.00000000E+00  0.00000000E+00  0.00000000E+00
  0.00000000E+00  0.00000000E+00  0.00000000E+00
  0.00000000E+00  0.00000000E+00  0.00000000E+00
  0.00000000E+00  0.00000000E+00  0.00000000E+00
  0.00000000E+00  0.00000000E+00  0.00000000E+00
  0.00000000E+00  0.00000000E+00  0.00000000E+00
  0.00000000E+00  0.00000000E+00  0.00000000E+00
  0.00000000E+00  0.00000000E+00  0.00000000E+00
  0.00000000E+00  0.00000000E+00  0.00000000E+00
  0.00000000E+00  0.00000000E+00  0.00000000E+00
  0.00000000E+00  0.00000000E+00  0.00000000E+00
  0.00000000E+00  0.00000000E+00  0.00000000E+00
  0.00000000E+00  0.00000000E+00  0.00000000E+00
  0.00000000E+00  0.00000000E+00  0.00000000E+00
  0.00000000E+00  0.00000000E+00  0.00000000E+00
