Cu3 Ag75 H37 C24 N12
1.0
  14.6550000000000011    0.0000000000000000    0.0000000000000000
   7.3275000000000006   12.6916022924609493    0.0000000000000000
   0.0000000000000000    0.0000000000000000   32.7551300689273077
Cu Ag H C N
3 75 37 24 12
Selective dynamics
direct
   0.0000005714593101    0.0000005714593101    0.2296572573405440 T T T Cu
   0.0000022456402817    0.4999973410497135    0.2296572573405440 T T T Cu
   0.4999973410497134    0.0000022456402817    0.2296572573405440 T T T Cu
   0.0000000000000000    0.0000000000000000    0.0000000000000000 F F F Ag
   0.0000000000000000    0.2000000000000000    0.0000000000000000 F F F Ag
   0.0000000000000000    0.4000000000000001    0.0000000000000000 F F F Ag
   0.0000000000000000    0.6000000000000002    0.0000000000000000 F F F Ag
   0.0000000000000000    0.8000000000000002    0.0000000000000000 F F F Ag
   0.2000000000000000    0.0000000000000000    0.0000000000000000 F F F Ag
   0.2000000000000000    0.2000000000000000    0.0000000000000000 F F F Ag
   0.2000000000000000    0.4000000000000001    0.0000000000000000 F F F Ag
   0.2000000000000000    0.6000000000000002    0.0000000000000000 F F F Ag
   0.1999999999999999    0.8000000000000002    0.0000000000000000 F F F Ag
   0.4000000000000000    0.0000000000000000    0.0000000000000000 F F F Ag
   0.4000000000000001    0.2000000000000000    0.0000000000000000 F F F Ag
   0.4000000000000000    0.4000000000000001    0.0000000000000000 F F F Ag
   0.4000000000000000    0.6000000000000002    0.0000000000000000 F F F Ag
   0.4000000000000000    0.8000000000000002    0.0000000000000000 F F F Ag
   0.6000000000000002    0.0000000000000000    0.0000000000000000 F F F Ag
   0.6000000000000002    0.2000000000000000    0.0000000000000000 F F F Ag
   0.6000000000000001    0.4000000000000001    0.0000000000000000 F F F Ag
   0.6000000000000002    0.6000000000000002    0.0000000000000000 F F F Ag
   0.6000000000000002    0.8000000000000002    0.0000000000000000 F F F Ag
   0.8000000000000000    0.0000000000000000    0.0000000000000000 F F F Ag
   0.8000000000000002    0.2000000000000000    0.0000000000000000 F F F Ag
   0.8000000000000002    0.4000000000000001    0.0000000000000000 F F F Ag
   0.8000000000000000    0.6000000000000002    0.0000000000000000 F F F Ag
   0.7999999999999999    0.8000000000000002    0.0000000000000000 F F F Ag
   0.0666666666666672    0.0666666666666671    0.0809449160061529 T T T Ag
   0.0666666666666671    0.2666666666666672    0.0809449160061529 T T T Ag
   0.0666666666666672    0.4666666666666672    0.0809449160061529 T T T Ag
   0.0666666666666671    0.6666666666666673    0.0809449160061529 T T T Ag
   0.0666666666666672    0.8666666666666673    0.0809449160061529 T T T Ag
   0.2666666666666672    0.0666666666666671    0.0809449160061529 T T T Ag
   0.2666666666666671    0.2666666666666672    0.0809449160061529 T T T Ag
   0.2666666666666672    0.4666666666666672    0.0809449160061529 T T T Ag
   0.2666666666666671    0.6666666666666673    0.0809449160061529 T T T Ag
   0.2666666666666671    0.8666666666666673    0.0809449160061529 T T T Ag
   0.4666666666666672    0.0666666666666671    0.0809449160061529 T T T Ag
   0.4666666666666672    0.2666666666666672    0.0809449160061529 T T T Ag
   0.4666666666666671    0.4666666666666672    0.0809449160061529 T T T Ag
   0.4666666666666672    0.6666666666666673    0.0809449160061529 T T T Ag
   0.4666666666666672    0.8666666666666673    0.0809449160061529 T T T Ag
   0.6666666666666674    0.0666666666666671    0.0809449160061529 T T T Ag
   0.6666666666666673    0.2666666666666672    0.0809449160061529 T T T Ag
   0.6666666666666673    0.4666666666666672    0.0809449160061529 T T T Ag
   0.6666666666666672    0.6666666666666673    0.0809449160061529 T T T Ag
   0.6666666666666673    0.8666666666666673    0.0809449160061529 T T T Ag
   0.8666666666666673    0.0666666666666671    0.0809449160061529 T T T Ag
   0.8666666666666673    0.2666666666666672    0.0809449160061529 T T T Ag
   0.8666666666666674    0.4666666666666672    0.0809449160061529 T T T Ag
   0.8666666666666671    0.6666666666666673    0.0809449160061529 T T T Ag
   0.8666666666666670    0.8666666666666673    0.0809449160061529 T T T Ag
   0.1333333333333329    0.1333333333333329    0.1484486040882899 T T T Ag
   0.1333333333333329    0.3333333333333329    0.1484486040882899 T T T Ag
   0.1333333333333329    0.5333333333333330    0.1484486040882899 T T T Ag
   0.1333333333333329    0.7333333333333331    0.1484486040882899 T T T Ag
   0.1333333333333329    0.9333333333333330    0.1484486040882899 T T T Ag
   0.3333333333333329    0.1333333333333329    0.1484486040882899 T T T Ag
   0.3333333333333329    0.3333333333333329    0.1484486040882899 T T T Ag
   0.3333333333333329    0.5333333333333330    0.1484486040882899 T T T Ag
   0.3333333333333328    0.7333333333333331    0.1484486040882899 T T T Ag
   0.3333333333333329    0.9333333333333330    0.1484486040882899 T T T Ag
   0.5333333333333330    0.1333333333333329    0.1484486040882899 T T T Ag
   0.5333333333333329    0.3333333333333329    0.1484486040882899 T T T Ag
   0.5333333333333329    0.5333333333333330    0.1484486040882899 T T T Ag
   0.5333333333333329    0.7333333333333331    0.1484486040882899 T T T Ag
   0.5333333333333330    0.9333333333333330    0.1484486040882899 T T T Ag
   0.7333333333333331    0.1333333333333329    0.1484486040882899 T T T Ag
   0.7333333333333331    0.3333333333333329    0.1484486040882899 T T T Ag
   0.7333333333333331    0.5333333333333330    0.1484486040882899 T T T Ag
   0.7333333333333329    0.7333333333333331    0.1484486040882899 T T T Ag
   0.7333333333333328    0.9333333333333330    0.1484486040882899 T T T Ag
   0.9333333333333330    0.1333333333333329    0.1484486040882899 T T T Ag
   0.9333333333333330    0.3333333333333329    0.1484486040882899 T T T Ag
   0.9333333333333328    0.5333333333333330    0.1484486040882899 T T T Ag
   0.9333333333333329    0.7333333333333331    0.1484486040882899 T T T Ag
   0.9333333333333330    0.9333333333333330    0.1484486040882899 T T T Ag
   0.1333333333333329    0.1333333333333329    0.9928964796361653 T T T H
   0.1333333333333329    0.3333333333333329    0.9928964796361653 T T T H
   0.1333333333333329    0.5333333333333330    0.9928964796361653 T T T H
   0.1333333333333329    0.7333333333333331    0.9928964796361653 T T T H
   0.1333333333333329    0.9333333333333330    0.9928964796361653 T T T H
   0.3333333333333329    0.1333333333333329    0.9928964796361653 T T T H
   0.3333333333333329    0.3333333333333329    0.9928964796361653 T T T H
   0.3333333333333329    0.5333333333333330    0.9928964796361653 T T T H
   0.3333333333333328    0.7333333333333331    0.9928964796361653 T T T H
   0.3333333333333329    0.9333333333333330    0.9928964796361653 T T T H
   0.5333333333333330    0.1333333333333329    0.9928964796361653 T T T H
   0.5333333333333329    0.3333333333333329    0.9928964796361653 T T T H
   0.5333333333333329    0.5333333333333330    0.9928964796361653 T T T H
   0.5333333333333329    0.7333333333333331    0.9928964796361653 T T T H
   0.5333333333333330    0.9333333333333330    0.9928964796361653 T T T H
   0.7333333333333331    0.1333333333333329    0.9928964796361653 T T T H
   0.7333333333333331    0.3333333333333329    0.9928964796361653 T T T H
   0.7333333333333331    0.5333333333333330    0.9928964796361653 T T T H
   0.7333333333333329    0.7333333333333331    0.9928964796361653 T T T H
   0.7333333333333328    0.9333333333333330    0.9928964796361653 T T T H
   0.9333333333333330    0.1333333333333329    0.9928964796361653 T T T H
   0.9333333333333330    0.3333333333333329    0.9928964796361653 T T T H
   0.9333333333333328    0.5333333333333330    0.9928964796361653 T T T H
   0.9333333333333329    0.7333333333333331    0.9928964796361653 T T T H
   0.9333333333333330    0.9333333333333330    0.9928964796361653 T T T H
   0.5657399950737610    0.7360788738714226    0.2296572573405440 T T T H
   0.2639206925316537    0.4342612377210618    0.2296572573405440 T T T H
   0.4342612377210617    0.2639206925316537    0.2296572573405440 T T T H
   0.7360788738714226    0.5657399950737609    0.2296572573405440 T T T H
   0.5650377900688184    0.2000245563073709    0.2296572573405440 T T T H
   0.4349647242454073    0.7999759562240226    0.2296572573405440 T T T H
   0.7350363125235281    0.1997166896742520    0.2296572573405440 T T T H
   0.2649676214492284    0.8002839430976416    0.2296572573405440 T T T H
   0.7999759562240224    0.4349647242454073    0.2296572573405440 T T T H
   0.1997166896742520    0.7350363125235281    0.2296572573405440 T T T H
   0.8002839430976416    0.2649676214492285    0.2296572573405440 T T T H
   0.2000245563073711    0.5650377900688185    0.2296572573405440 T T T H
   0.2609821362234142    0.3588979437300087    0.2296572573405440 T T T C
   0.3588979437300086    0.2609821362234143    0.2296572573405440 T T T C
   0.6405229166505010    0.1214250596879671    0.2296572573405440 T T T C
   0.2669205438342294    0.1668398309110850    0.2296572573405440 T T T C
   0.8328398081161579    0.9346975208095896    0.2296572573405440 T T T C
   0.3594795366421155    0.8785754924798945    0.2296572573405440 T T T C
   0.7382792213644044    0.1212603855306582    0.2296572573405440 T T T C
   0.2670679373472369    0.0651355631758418    0.2296572573405440 T T T C
   0.9346975208095896    0.8328398081161579    0.2296572573405440 T T T C
   0.2617235970612595    0.8787397246898108    0.2296572573405440 T T T C
   0.1212603855306582    0.7382792213644043    0.2296572573405440 T T T C
   0.7329298541117507    0.9348631753521295    0.2296572573405440 T T T C
   0.1671579126934094    0.0653005097011560    0.2296572573405440 T T T C
   0.8787397246898108    0.2617235970612594    0.2296572573405440 T T T C
   0.1214250596879671    0.6405229166505010    0.2296572573405440 T T T C
   0.0653005097011560    0.1671579126934094    0.2296572573405440 T T T C
   0.8331589381807613    0.7330770303469362    0.2296572573405440 T T T C
   0.8785754924798944    0.3594795366421153    0.2296572573405440 T T T C
   0.7390178957391005    0.6411022294612659    0.2296572573405440 T T T C
   0.0651355631758418    0.2670679373472369    0.2296572573405440 T T T C
   0.7330770303469362    0.8331589381807613    0.2296572573405440 T T T C
   0.6411022294612658    0.7390178957391007    0.2296572573405440 T T T C
   0.9348631753521294    0.7329298541117508    0.2296572573405440 T T T C
   0.1668398309110851    0.2669205438342295    0.2296572573405440 T T T C
   0.6332545522997689    0.8393038319615760    0.2296572573405440 T T T N
   0.9711234471870642    0.3669502927271843    0.2296572573405440 T T T N
   0.8393038319615760    0.6332545522997691    0.2296572573405440 T T T N
   0.1606978231932001    0.3667419358474138    0.2296572573405440 T T T N
   0.0288781257472872    0.6330498568711513    0.2296572573405440 T T T N
   0.0285124950232962    0.8385939597324515    0.2296572573405440 T T T N
   0.3669502927271842    0.9711234471870646    0.2296572573405440 T T T N
   0.8385939597324513    0.0285124950232962    0.2296572573405440 T T T N
   0.3667419358474138    0.1606978231932001    0.2296572573405440 T T T N
   0.6330498568711515    0.0288781257472874    0.2296572573405440 T T T N
   0.9714843800428135    0.1614059845886451    0.2296572573405440 T T T N
   0.1614059845886450    0.9714843800428136    0.2296572573405440 T T T N
