Cu3 Ag125 H37 C24 N12                   
    1.000000000000000     
    14.6550000000000011    0.0000000000000000    0.0000000000000000
     7.3275000000000006   12.6916022924609493    0.0000000000000000
     0.0000000000000000    0.0000000000000000   37.5414330263256417
  Cu              Ag              H               C               N             
     3   125    37    24    12
Selective dynamics
Direct
  0.1307095453555888  0.1307095453555888  0.3185288841406539   T   T   T
  0.1707327911747879  0.6347195450060831  0.3185319673368074   T   T   T
  0.6347195450060831  0.1707327911747879  0.3185319673368074   T   T   T
  0.1333333333333329  0.1333333333333329  0.1274938800029801   F   F   F
  0.1333333333333329  0.3333333333333357  0.1274938800029801   F   F   F
  0.1333333333333329  0.5333333333333314  0.1274938800029801   F   F   F
  0.1333333333333329  0.7333333333333343  0.1274938800029801   F   F   F
  0.1333333333333329  0.9333333333333300  0.1274938800029801   F   F   F
  0.3333333333333357  0.1333333333333329  0.1274938800029801   F   F   F
  0.3333333333333357  0.3333333333333357  0.1274938800029801   F   F   F
  0.3333333333333357  0.5333333333333314  0.1274938800029801   F   F   F
  0.3333333333333357  0.7333333333333343  0.1274938800029801   F   F   F
  0.3333333333333357  0.9333333333333300  0.1274938800029801   F   F   F
  0.5333333333333314  0.1333333333333329  0.1274938800029801   F   F   F
  0.5333333333333314  0.3333333333333357  0.1274938800029801   F   F   F
  0.5333333333333314  0.5333333333333314  0.1274938800029801   F   F   F
  0.5333333333333314  0.7333333333333343  0.1274938800029801   F   F   F
  0.5333333333333314  0.9333333333333300  0.1274938800029801   F   F   F
  0.7333333333333343  0.1333333333333329  0.1274938800029801   F   F   F
  0.7333333333333343  0.3333333333333357  0.1274938800029801   F   F   F
  0.7333333333333343  0.5333333333333314  0.1274938800029801   F   F   F
  0.7333333333333343  0.7333333333333343  0.1274938800029801   F   F   F
  0.7333333333333343  0.9333333333333300  0.1274938800029801   F   F   F
  0.9333333333333300  0.1333333333333329  0.1274938800029801   F   F   F
  0.9333333333333300  0.3333333333333357  0.1274938800029801   F   F   F
  0.9333333333333300  0.5333333333333314  0.1274938800029801   F   F   F
  0.9333333333333300  0.7333333333333343  0.1274938800029801   F   F   F
  0.9333333333333300  0.9333333333333300  0.1274938800029801   F   F   F
  0.1995460010108034  0.1995460010108034  0.1890675963300282   T   T   T
  0.1991860846440938  0.4007396896733301  0.1888497137451507   T   T   T
  0.1991074675260813  0.6004736955883874  0.1890303332197192   T   T   T
  0.2007140399380127  0.7993025549115006  0.1890909971711815   T   T   T
  0.2003970668538620  0.9993977628039912  0.1891579421482342   T   T   T
  0.4007396896733301  0.1991860846440938  0.1888497137451507   T   T   T
  0.3995900032307923  0.3995900032307923  0.1896955896793563   T   T   T
  0.3993096014382088  0.5993718356328818  0.1894754507672891   T   T   T
  0.3998971407107876  0.7993112727708073  0.1890996998246542   T   T   T
  0.3985002639700938  0.0000823748395260  0.1893894285562178   T   T   T
  0.6004736955883874  0.1991074675260813  0.1890303332197192   T   T   T
  0.5993718356328818  0.3993096014382088  0.1894754507672891   T   T   T
  0.5995897791368968  0.5995897791368968  0.1891365666846701   T   T   T
  0.5993793443025430  0.7995278842059083  0.1889250182529250   T   T   T
  0.6008851182093098  0.9994867131904409  0.1891906381050475   T   T   T
  0.7993025549115006  0.2007140399380127  0.1890909971711815   T   T   T
  0.7993112727708073  0.3998971407107876  0.1890996998246542   T   T   T
  0.7995278842059083  0.5993793443025430  0.1889250182529250   T   T   T
  0.7991574512188124  0.7991574512188124  0.1885185189301193   T   T   T
  0.7986891459829526  0.0004939073280716  0.1886390726340914   T   T   T
  0.9993977628039912  0.2003970668538620  0.1891579421482342   T   T   T
  0.0000823748395260  0.3985002639700938  0.1893894285562178   T   T   T
  0.9994867131904338  0.6008851182093098  0.1891906381050475   T   T   T
  0.0004939073280716  0.7986891459829526  0.1886390726340914   T   T   T
  0.0005920326860238  0.0005920326860309  0.1888920358169360   T   T   T
  0.2674918733962319  0.2674918733962319  0.2496744891904447   T   T   T
  0.2639049210349303  0.4688141932229241  0.2510215397178293   T   T   T
  0.2642789243100326  0.6658301235068343  0.2515748229844471   T   T   T
  0.2676175005069904  0.8651841559398780  0.2511846607503271   T   T   T
  0.2644175393015243  0.0676211163868972  0.2523279837167097   T   T   T
  0.4688141932229241  0.2639049210349303  0.2510215397178293   T   T   T
  0.4667536406279271  0.4667536406279271  0.2518600253666421   T   T   T
  0.4661859703166963  0.6657469938119508  0.2517330479523125   T   T   T
  0.4666851666154553  0.8652976579277372  0.2511720034438512   T   T   T
  0.4675238138649155  0.0642492171435669  0.2502161144688361   T   T   T
  0.6658301235068343  0.2642789243100326  0.2515748229844471   T   T   T
  0.6657469938119508  0.4661859703166963  0.2517330479523125   T   T   T
  0.6658143002434292  0.6658143002434292  0.2519947860925111   T   T   T
  0.6664768292298707  0.8648429776492649  0.2509042214092548   T   T   T
  0.6666708950333343  0.0658901757134857  0.2528903825463615   T   T   T
  0.8651841559398780  0.2676175005069904  0.2511846607503271   T   T   T
  0.8652976579277372  0.4666851666154553  0.2511720034438512   T   T   T
  0.8648429776492649  0.6664768292298707  0.2509042214092548   T   T   T
  0.8653033749125301  0.8653033749125301  0.2488584582017629   T   T   T
  0.8671249836036757  0.0645977644882309  0.2496411318628684   T   T   T
  0.0676211163868972  0.2644175393015243  0.2523279837167097   T   T   T
  0.0642492171435669  0.4675238138649155  0.2502161144688361   T   T   T
  0.0658901757134857  0.6666708950333343  0.2528903825463615   T   T   T
  0.0645977644882309  0.8671249836036757  0.2496411318628684   T   T   T
  0.0672832013016404  0.0672832013016404  0.2512485079828597   T   T   T
  0.0666666666666700  0.0666666666666700  0.0637469400014936   F   F   F
  0.0666666666666700  0.2666666666666728  0.0637469400014936   F   F   F
  0.0666666666666700  0.4666666666666686  0.0637469400014936   F   F   F
  0.0666666666666700  0.6666666666666714  0.0637469400014936   F   F   F
  0.0666666666666700  0.8666666666666671  0.0637469400014936   F   F   F
  0.2666666666666728  0.0666666666666700  0.0637469400014936   F   F   F
  0.2666666666666728  0.2666666666666728  0.0637469400014936   F   F   F
  0.2666666666666728  0.4666666666666686  0.0637469400014936   F   F   F
  0.2666666666666728  0.6666666666666714  0.0637469400014936   F   F   F
  0.2666666666666657  0.8666666666666671  0.0637469400014936   F   F   F
  0.4666666666666686  0.0666666666666700  0.0637469400014936   F   F   F
  0.4666666666666686  0.2666666666666728  0.0637469400014936   F   F   F
  0.4666666666666686  0.4666666666666686  0.0637469400014936   F   F   F
  0.4666666666666686  0.6666666666666714  0.0637469400014936   F   F   F
  0.4666666666666686  0.8666666666666671  0.0637469400014936   F   F   F
  0.6666666666666714  0.0666666666666700  0.0637469400014936   F   F   F
  0.6666666666666714  0.2666666666666728  0.0637469400014936   F   F   F
  0.6666666666666714  0.4666666666666686  0.0637469400014936   F   F   F
  0.6666666666666714  0.6666666666666714  0.0637469400014936   F   F   F
  0.6666666666666714  0.8666666666666671  0.0637469400014936   F   F   F
  0.8666666666666671  0.0666666666666700  0.0637469400014936   F   F   F
  0.8666666666666671  0.2666666666666728  0.0637469400014936   F   F   F
  0.8666666666666671  0.4666666666666686  0.0637469400014936   F   F   F
  0.8666666666666671  0.6666666666666714  0.0637469400014936   F   F   F
  0.8666666666666671  0.8666666666666671  0.0637469400014936   F   F   F
  0.0000000000000000  0.0000000000000000  0.0000000000000000   F   F   F
  0.0000000000000000  0.2000000000000028  0.0000000000000000   F   F   F
  0.0000000000000000  0.3999999999999986  0.0000000000000000   F   F   F
  0.0000000000000000  0.6000000000000014  0.0000000000000000   F   F   F
  0.0000000000000000  0.7999999999999972  0.0000000000000000   F   F   F
  0.2000000000000028  0.0000000000000000  0.0000000000000000   F   F   F
  0.2000000000000028  0.2000000000000028  0.0000000000000000   F   F   F
  0.2000000000000028  0.3999999999999986  0.0000000000000000   F   F   F
  0.2000000000000028  0.6000000000000014  0.0000000000000000   F   F   F
  0.2000000000000028  0.7999999999999972  0.0000000000000000   F   F   F
  0.3999999999999986  0.0000000000000000  0.0000000000000000   F   F   F
  0.3999999999999986  0.2000000000000028  0.0000000000000000   F   F   F
  0.3999999999999986  0.3999999999999986  0.0000000000000000   F   F   F
  0.3999999999999986  0.6000000000000014  0.0000000000000000   F   F   F
  0.3999999999999986  0.7999999999999972  0.0000000000000000   F   F   F
  0.6000000000000014  0.0000000000000000  0.0000000000000000   F   F   F
  0.6000000000000014  0.2000000000000028  0.0000000000000000   F   F   F
  0.6000000000000014  0.3999999999999986  0.0000000000000000   F   F   F
  0.6000000000000014  0.6000000000000014  0.0000000000000000   F   F   F
  0.6000000000000014  0.7999999999999972  0.0000000000000000   F   F   F
  0.7999999999999972  0.0000000000000000  0.0000000000000000   F   F   F
  0.7999999999999972  0.2000000000000028  0.0000000000000000   F   F   F
  0.7999999999999972  0.3999999999999986  0.0000000000000000   F   F   F
  0.7999999999999972  0.6000000000000014  0.0000000000000000   F   F   F
  0.7999999999999972  0.7999999999999972  0.0000000000000000   F   F   F
  0.1333300454370343  0.1333300454370343  0.9782495555529790   T   T   T
  0.1332927426488826  0.3333844816564546  0.9784921144233704   T   T   T
  0.1333055046051072  0.5334561686929303  0.9784763988840952   T   T   T
  0.1334458668222952  0.7331517368633982  0.9784440324576907   T   T   T
  0.1333246125719429  0.9332348873919653  0.9785178945350465   T   T   T
  0.3333844816564546  0.1332927426488826  0.9784921144233704   T   T   T
  0.3333076740865936  0.3333076740865936  0.9783856452366201   T   T   T
  0.3333550845923880  0.5332009236168650  0.9785093774158407   T   T   T
  0.3331930657014456  0.7336147432170675  0.9784118507359210   T   T   T
  0.3333271264167595  0.9333497671764243  0.9785532441524681   T   T   T
  0.5334561686929303  0.1333055046051072  0.9784763988840952   T   T   T
  0.5332009236168650  0.3333550845923880  0.9785093774158407   T   T   T
  0.5333597674344001  0.5333597674344001  0.9785279457974356   T   T   T
  0.5334850237541640  0.7329962995574272  0.9784646282913438   T   T   T
  0.5330528691934346  0.9336307849751172  0.9784799742686390   T   T   T
  0.7331517368633911  0.1334458668222952  0.9784440324576907   T   T   T
  0.7336147432170675  0.3331930657014456  0.9784118507359210   T   T   T
  0.7329962995574272  0.5334850237541640  0.9784646282913438   T   T   T
  0.7335069062463764  0.7335069062463764  0.9785732028599555   T   T   T
  0.7334199658178472  0.9330377495458473  0.9784354948310245   T   T   T
  0.9332348873919581  0.1333246125719429  0.9785178945350465   T   T   T
  0.9333497671764243  0.3333271264167595  0.9785532441524681   T   T   T
  0.9336307849751172  0.5330528691934346  0.9784799742686390   T   T   T
  0.9330377495458473  0.7334199658178472  0.9784354948310245   T   T   T
  0.9334962409410783  0.9334962409410783  0.9784560882135713   T   T   T
  0.7088904406707316  0.8780088581939914  0.3335692873582337   T   T   T
  0.3945447638605944  0.5608127524928274  0.3312337855245339   T   T   T
  0.5608127524928274  0.3945447638605944  0.3312337855245339   T   T   T
  0.8780088581939914  0.7088904406707316  0.3335692873582337   T   T   T
  0.7118805688220513  0.3234606973144822  0.3264574397415737   T   T   T
  0.5603770139029504  0.9493751495461143  0.3289024862852772   T   T   T
  0.8790562857264138  0.3210244485137831  0.3287650944136050   T   T   T
  0.3933166366450029  0.9480619753744151  0.3290527226250617   T   T   T
  0.9493751495461143  0.5603770139029504  0.3289024862852772   T   T   T
  0.3210244485137831  0.8790562857264138  0.3287650944136050   T   T   T
  0.9480619753744151  0.3933166366450029  0.3290527226250617   T   T   T
  0.3234606973144822  0.7118805688220513  0.3264574397415737   T   T   T
  0.3931469523061633  0.4872790206798530  0.3314335463138773   T   T   T
  0.4872790206798530  0.3931469523061633  0.3314335463138773   T   T   T
  0.7844444804071737  0.2478809960029787  0.3285099296989725   T   T   T
  0.3981563114460290  0.3012644378257453  0.3341870185430226   T   T   T
  0.9684460153881448  0.0669137196299741  0.3335374056382218   T   T   T
  0.4864930327300078  0.0240476861419427  0.3305605294497717   T   T   T
  0.8799770934915215  0.2463901244112617  0.3292328879448563   T   T   T
  0.3974653148250630  0.2029949305148669  0.3345027139433108   T   T   T
  0.0669137196299741  0.9684460153881448  0.3335374056382218   T   T   T
  0.3913768061496549  0.0231950095044830  0.3305877150234865   T   T   T
  0.2463901244112617  0.8799770934915215  0.3292328879448563   T   T   T
  0.8711155101729317  0.0678233327669006  0.3330528398115757   T   T   T
  0.3003984652456995  0.2025188674375760  0.3339499956337214   T   T   T
  0.0231950095044830  0.3913768061496549  0.3305877150234865   T   T   T
  0.2478809960029787  0.7844444804071737  0.3285099296989725   T   T   T
  0.2025188674375760  0.3003984652456995  0.3339499956337214   T   T   T
  0.9693215171751927  0.8718439986240780  0.3344483053353090   T   T   T
  0.0240476861419427  0.4864930327300078  0.3305605294497717   T   T   T
  0.8786906616398845  0.7829646989347746  0.3338126143849340   T   T   T
  0.2029949305148669  0.3974653148250630  0.3345027139433108   T   T   T
  0.8718439986240638  0.9693215171751927  0.3344483053353090   T   T   T
  0.7829646989347746  0.8786906616398845  0.3338126143849340   T   T   T
  0.0678233327669006  0.8711155101729317  0.3330528398115757   T   T   T
  0.3012644378257453  0.3981563114460290  0.3341870185430226   T   T   T
  0.7776790171457419  0.9725761226608010  0.3343503120786042   T   T   T
  0.1125420764812664  0.4919942728932905  0.3334069269100074   T   T   T
  0.9725761226608010  0.7776790171457419  0.3343503120786042   T   T   T
  0.2967349873099886  0.4941460964676432  0.3322204763042889   T   T   T
  0.1599388577248305  0.7757249121499622  0.3307906038899591   T   T   T
  0.1568867661841217  0.9749091468205011  0.3323211071134918   T   T   T
  0.4919942728932905  0.1125420764812664  0.3334069269100074   T   T   T
  0.9749091468205011  0.1568867661841217  0.3323211071134918   T   T   T
  0.4941460964676432  0.2967349873099886  0.3322204763042889   T   T   T
  0.7757249121499622  0.1599388577248305  0.3307906038899591   T   T   T
  0.1113320619204458  0.2965869034118521  0.3327291495621578   T   T   T
  0.2965869034118521  0.1113320619204529  0.3327291495621578   T   T   T
 
  0.00000000E+00  0.00000000E+00  0.00000000E+00
  0.00000000E+00  0.00000000E+00  0.00000000E+00
  0.00000000E+00  0.00000000E+00  0.00000000E+00
  0.00000000E+00  0.00000000E+00  0.00000000E+00
  0.00000000E+00  0.00000000E+00  0.00000000E+00
  0.00000000E+00  0.00000000E+00  0.00000000E+00
  0.00000000E+00  0.00000000E+00  0.00000000E+00
  0.00000000E+00  0.00000000E+00  0.00000000E+00
  0.00000000E+00  0.00000000E+00  0.00000000E+00
  0.00000000E+00  0.00000000E+00  0.00000000E+00
  0.00000000E+00  0.00000000E+00  0.00000000E+00
  0.00000000E+00  0.00000000E+00  0.00000000E+00
  0.00000000E+00  0.00000000E+00  0.00000000E+00
  0.00000000E+00  0.00000000E+00  0.00000000E+00
  0.00000000E+00  0.00000000E+00  0.00000000E+00
  0.00000000E+00  0.00000000E+00  0.00000000E+00
  0.00000000E+00  0.00000000E+00  0.00000000E+00
  0.00000000E+00  0.00000000E+00  0.00000000E+00
  0.00000000E+00  0.00000000E+00  0.00000000E+00
  0.00000000E+00  0.00000000E+00  0.00000000E+00
  0.00000000E+00  0.00000000E+00  0.00000000E+00
  0.00000000E+00  0.00000000E+00  0.00000000E+00
  0.00000000E+00  0.00000000E+00  0.00000000E+00
  0.00000000E+00  0.00000000E+00  0.00000000E+00
  0.00000000E+00  0.00000000E+00  0.00000000E+00
  0.00000000E+00  0.00000000E+00  0.00000000E+00
  0.00000000E+00  0.00000000E+00  0.00000000E+00
  0.00000000E+00  0.00000000E+00  0.00000000E+00
  0.00000000E+00  0.00000000E+00  0.00000000E+00
  0.00000000E+00  0.00000000E+00  0.00000000E+00
  0.00000000E+00  0.00000000E+00  0.00000000E+00
  0.00000000E+00  0.00000000E+00  0.00000000E+00
  0.00000000E+00  0.00000000E+00  0.00000000E+00
  0.00000000E+00  0.00000000E+00  0.00000000E+00
  0.00000000E+00  0.00000000E+00  0.00000000E+00
  0.00000000E+00  0.00000000E+00  0.00000000E+00
  0.00000000E+00  0.00000000E+00  0.00000000E+00
  0.00000000E+00  0.00000000E+00  0.00000000E+00
  0.00000000E+00  0.00000000E+00  0.00000000E+00
  0.00000000E+00  0.00000000E+00  0.00000000E+00
  0.00000000E+00  0.00000000E+00  0.00000000E+00
  0.00000000E+00  0.00000000E+00  0.00000000E+00
  0.00000000E+00  0.00000000E+00  0.00000000E+00
  0.00000000E+00  0.00000000E+00  0.00000000E+00
  0.00000000E+00  0.00000000E+00  0.00000000E+00
  0.00000000E+00  0.00000000E+00  0.00000000E+00
  0.00000000E+00  0.00000000E+00  0.00000000E+00
  0.00000000E+00  0.00000000E+00  0.00000000E+00
  0.00000000E+00  0.00000000E+00  0.00000000E+00
  0.00000000E+00  0.00000000E+00  0.00000000E+00
  0.00000000E+00  0.00000000E+00  0.00000000E+00
  0.00000000E+00  0.00000000E+00  0.00000000E+00
  0.00000000E+00  0.00000000E+00  0.00000000E+00
  0.00000000E+00  0.00000000E+00  0.00000000E+00
  0.00000000E+00  0.00000000E+00  0.00000000E+00
  0.00000000E+00  0.00000000E+00  0.00000000E+00
  0.00000000E+00  0.00000000E+00  0.00000000E+00
  0.00000000E+00  0.00000000E+00  0.00000000E+00
  0.00000000E+00  0.00000000E+00  0.00000000E+00
  0.00000000E+00  0.00000000E+00  0.00000000E+00
  0.00000000E+00  0.00000000E+00  0.00000000E+00
  0.00000000E+00  0.00000000E+00  0.00000000E+00
  0.00000000E+00  0.00000000E+00  0.00000000E+00
  0.00000000E+00  0.00000000E+00  0.00000000E+00
  0.00000000E+00  0.00000000E+00  0.00000000E+00
  0.00000000E+00  0.00000000E+00  0.00000000E+00
  0.00000000E+00  0.00000000E+00  0.00000000E+00
  0.00000000E+00  0.00000000E+00  0.00000000E+00
  0.00000000E+00  0.00000000E+00  0.00000000E+00
  0.00000000E+00  0.00000000E+00  0.00000000E+00
  0.00000000E+00  0.00000000E+00  0.00000000E+00
  0.00000000E+00  0.00000000E+00  0.00000000E+00
  0.00000000E+00  0.00000000E+00  0.00000000E+00
  0.00000000E+00  0.00000000E+00  0.00000000E+00
  0.00000000E+00  0.00000000E+00  0.00000000E+00
  0.00000000E+00  0.00000000E+00  0.00000000E+00
  0.00000000E+00  0.00000000E+00  0.00000000E+00
  0.00000000E+00  0.00000000E+00  0.00000000E+00
  0.00000000E+00  0.00000000E+00  0.00000000E+00
  0.00000000E+00  0.00000000E+00  0.00000000E+00
  0.00000000E+00  0.00000000E+00  0.00000000E+00
  0.00000000E+00  0.00000000E+00  0.00000000E+00
  0.00000000E+00  0.00000000E+00  0.00000000E+00
  0.00000000E+00  0.00000000E+00  0.00000000E+00
  0.00000000E+00  0.00000000E+00  0.00000000E+00
  0.00000000E+00  0.00000000E+00  0.00000000E+00
  0.00000000E+00  0.00000000E+00  0.00000000E+00
  0.00000000E+00  0.00000000E+00  0.00000000E+00
  0.00000000E+00  0.00000000E+00  0.00000000E+00
  0.00000000E+00  0.00000000E+00  0.00000000E+00
  0.00000000E+00  0.00000000E+00  0.00000000E+00
  0.00000000E+00  0.00000000E+00  0.00000000E+00
  0.00000000E+00  0.00000000E+00  0.00000000E+00
  0.00000000E+00  0.00000000E+00  0.00000000E+00
  0.00000000E+00  0.00000000E+00  0.00000000E+00
  0.00000000E+00  0.00000000E+00  0.00000000E+00
  0.00000000E+00  0.00000000E+00  0.00000000E+00
  0.00000000E+00  0.00000000E+00  0.00000000E+00
  0.00000000E+00  0.00000000E+00  0.00000000E+00
  0.00000000E+00  0.00000000E+00  0.00000000E+00
  0.00000000E+00  0.00000000E+00  0.00000000E+00
  0.00000000E+00  0.00000000E+00  0.00000000E+00
  0.00000000E+00  0.00000000E+00  0.00000000E+00
  0.00000000E+00  0.00000000E+00  0.00000000E+00
  0.00000000E+00  0.00000000E+00  0.00000000E+00
  0.00000000E+00  0.00000000E+00  0.00000000E+00
  0.00000000E+00  0.00000000E+00  0.00000000E+00
  0.00000000E+00  0.00000000E+00  0.00000000E+00
  0.00000000E+00  0.00000000E+00  0.00000000E+00
  0.00000000E+00  0.00000000E+00  0.00000000E+00
  0.00000000E+00  0.00000000E+00  0.00000000E+00
  0.00000000E+00  0.00000000E+00  0.00000000E+00
  0.00000000E+00  0.00000000E+00  0.00000000E+00
  0.00000000E+00  0.00000000E+00  0.00000000E+00
  0.00000000E+00  0.00000000E+00  0.00000000E+00
  0.00000000E+00  0.00000000E+00  0.00000000E+00
  0.00000000E+00  0.00000000E+00  0.00000000E+00
  0.00000000E+00  0.00000000E+00  0.00000000E+00
  0.00000000E+00  0.00000000E+00  0.00000000E+00
  0.00000000E+00  0.00000000E+00  0.00000000E+00
  0.00000000E+00  0.00000000E+00  0.00000000E+00
  0.00000000E+00  0.00000000E+00  0.00000000E+00
  0.00000000E+00  0.00000000E+00  0.00000000E+00
  0.00000000E+00  0.00000000E+00  0.00000000E+00
  0.00000000E+00  0.00000000E+00  0.00000000E+00
  0.00000000E+00  0.00000000E+00  0.00000000E+00
  0.00000000E+00  0.00000000E+00  0.00000000E+00
  0.00000000E+00  0.00000000E+00  0.00000000E+00
  0.00000000E+00  0.00000000E+00  0.00000000E+00
  0.00000000E+00  0.00000000E+00  0.00000000E+00
  0.00000000E+00  0.00000000E+00  0.00000000E+00
  0.00000000E+00  0.00000000E+00  0.00000000E+00
  0.00000000E+00  0.00000000E+00  0.00000000E+00
  0.00000000E+00  0.00000000E+00  0.00000000E+00
  0.00000000E+00  0.00000000E+00  0.00000000E+00
  0.00000000E+00  0.00000000E+00  0.00000000E+00
  0.00000000E+00  0.00000000E+00  0.00000000E+00
  0.00000000E+00  0.00000000E+00  0.00000000E+00
  0.00000000E+00  0.00000000E+00  0.00000000E+00
  0.00000000E+00  0.00000000E+00  0.00000000E+00
  0.00000000E+00  0.00000000E+00  0.00000000E+00
  0.00000000E+00  0.00000000E+00  0.00000000E+00
  0.00000000E+00  0.00000000E+00  0.00000000E+00
  0.00000000E+00  0.00000000E+00  0.00000000E+00
  0.00000000E+00  0.00000000E+00  0.00000000E+00
  0.00000000E+00  0.00000000E+00  0.00000000E+00
  0.00000000E+00  0.00000000E+00  0.00000000E+00
  0.00000000E+00  0.00000000E+00  0.00000000E+00
  0.00000000E+00  0.00000000E+00  0.00000000E+00
  0.00000000E+00  0.00000000E+00  0.00000000E+00
  0.00000000E+00  0.00000000E+00  0.00000000E+00
  0.00000000E+00  0.00000000E+00  0.00000000E+00
  0.00000000E+00  0.00000000E+00  0.00000000E+00
  0.00000000E+00  0.00000000E+00  0.00000000E+00
  0.00000000E+00  0.00000000E+00  0.00000000E+00
  0.00000000E+00  0.00000000E+00  0.00000000E+00
  0.00000000E+00  0.00000000E+00  0.00000000E+00
  0.00000000E+00  0.00000000E+00  0.00000000E+00
  0.00000000E+00  0.00000000E+00  0.00000000E+00
  0.00000000E+00  0.00000000E+00  0.00000000E+00
  0.00000000E+00  0.00000000E+00  0.00000000E+00
  0.00000000E+00  0.00000000E+00  0.00000000E+00
  0.00000000E+00  0.00000000E+00  0.00000000E+00
  0.00000000E+00  0.00000000E+00  0.00000000E+00
  0.00000000E+00  0.00000000E+00  0.00000000E+00
  0.00000000E+00  0.00000000E+00  0.00000000E+00
  0.00000000E+00  0.00000000E+00  0.00000000E+00
  0.00000000E+00  0.00000000E+00  0.00000000E+00
  0.00000000E+00  0.00000000E+00  0.00000000E+00
  0.00000000E+00  0.00000000E+00  0.00000000E+00
  0.00000000E+00  0.00000000E+00  0.00000000E+00
  0.00000000E+00  0.00000000E+00  0.00000000E+00
  0.00000000E+00  0.00000000E+00  0.00000000E+00
  0.00000000E+00  0.00000000E+00  0.00000000E+00
  0.00000000E+00  0.00000000E+00  0.00000000E+00
  0.00000000E+00  0.00000000E+00  0.00000000E+00
  0.00000000E+00  0.00000000E+00  0.00000000E+00
  0.00000000E+00  0.00000000E+00  0.00000000E+00
  0.00000000E+00  0.00000000E+00  0.00000000E+00
  0.00000000E+00  0.00000000E+00  0.00000000E+00
  0.00000000E+00  0.00000000E+00  0.00000000E+00
  0.00000000E+00  0.00000000E+00  0.00000000E+00
  0.00000000E+00  0.00000000E+00  0.00000000E+00
  0.00000000E+00  0.00000000E+00  0.00000000E+00
  0.00000000E+00  0.00000000E+00  0.00000000E+00
  0.00000000E+00  0.00000000E+00  0.00000000E+00
  0.00000000E+00  0.00000000E+00  0.00000000E+00
  0.00000000E+00  0.00000000E+00  0.00000000E+00
  0.00000000E+00  0.00000000E+00  0.00000000E+00
  0.00000000E+00  0.00000000E+00  0.00000000E+00
  0.00000000E+00  0.00000000E+00  0.00000000E+00
  0.00000000E+00  0.00000000E+00  0.00000000E+00
  0.00000000E+00  0.00000000E+00  0.00000000E+00
  0.00000000E+00  0.00000000E+00  0.00000000E+00
  0.00000000E+00  0.00000000E+00  0.00000000E+00
  0.00000000E+00  0.00000000E+00  0.00000000E+00
  0.00000000E+00  0.00000000E+00  0.00000000E+00
  0.00000000E+00  0.00000000E+00  0.00000000E+00
  0.00000000E+00  0.00000000E+00  0.00000000E+00
  0.00000000E+00  0.00000000E+00  0.00000000E+00
  0.00000000E+00  0.00000000E+00  0.00000000E+00
