HAT2Cu3                                 
   1.00000000000000     
    12.2065392564970843   -7.0233673579459293    0.0000000000000000
    12.2065392564970843    7.0233673579459293    0.0000000000000000
     0.0000000000000000    0.0000000000000000   15.0000000000000000
   C    Cu   H    N 
    24     3    12    12
Direct
  0.2609821362234142  0.3588979437300086  0.0000000000000000
  0.3588979437300086  0.2609821362234142  0.0000000000000000
  0.6405229166505010  0.1214250596879671 -0.0000000000000000
  0.2669205438342294  0.1668398309110850  0.0000000000000000
  0.8328398081161579  0.9346975208095895 -0.0000000000000000
  0.3594795366421154  0.8785754924798944 -0.0000000000000000
  0.7382792213644043  0.1212603855306582  0.0000000000000000
  0.2670679373472369  0.0651355631758418  0.0000000000000000
  0.9346975208095895  0.8328398081161579 -0.0000000000000000
  0.2617235970612594  0.8787397246898108 -0.0000000000000000
  0.1212603855306582  0.7382792213644043  0.0000000000000000
  0.7329298541117507  0.9348631753521294  0.0000000000000000
  0.1671579126934094  0.0653005097011560 -0.0000000000000000
  0.8787397246898108  0.2617235970612594  0.0000000000000000
  0.1214250596879671  0.6405229166505010  0.0000000000000000
  0.0653005097011560  0.1671579126934094  0.0000000000000000
  0.8331589381807611  0.7330770303469361  0.0000000000000000
  0.8785754924798944  0.3594795366421154 -0.0000000000000000
  0.7390178957391006  0.6411022294612659 -0.0000000000000000
  0.0651355631758418  0.2670679373472369 -0.0000000000000000
  0.7330770303469361  0.8331589381807611  0.0000000000000000
  0.6411022294612659  0.7390178957391006  0.0000000000000000
  0.9348631753521294  0.7329298541117507 -0.0000000000000000
  0.1668398309110850  0.2669205438342294  0.0000000000000000
  0.0000005714593101  0.0000005714593101  0.0000000000000000
  0.0000022456402817  0.4999973410497134  0.0000000000000000
  0.4999973410497134  0.0000022456402817  0.0000000000000000
  0.5657399950737609  0.7360788738714226  0.0000000000000000
  0.2639206925316537  0.4342612377210617 -0.0000000000000000
  0.4342612377210617  0.2639206925316537  0.0000000000000000
  0.7360788738714226  0.5657399950737609  0.0000000000000000
  0.5650377900688184  0.2000245563073710  0.0000000000000000
  0.4349647242454073  0.7999759562240225 -0.0000000000000000
  0.7350363125235281  0.1997166896742520  0.0000000000000000
  0.2649676214492284  0.8002839430976416  0.0000000000000000
  0.7999759562240225  0.4349647242454073  0.0000000000000000
  0.1997166896742520  0.7350363125235281  0.0000000000000000
  0.8002839430976416  0.2649676214492284  0.0000000000000000
  0.2000245563073710  0.5650377900688184  0.0000000000000000
  0.6332545522997690  0.8393038319615759  0.0000000000000000
  0.9711234471870643  0.3669502927271842 -0.0000000000000000
  0.8393038319615759  0.6332545522997690  0.0000000000000000
  0.1606978231932001  0.3667419358474138  0.0000000000000000
  0.0288781257472873  0.6330498568711513 -0.0000000000000000
  0.0285124950232962  0.8385939597324514 -0.0000000000000000
  0.3669502927271842  0.9711234471870643  0.0000000000000000
  0.8385939597324514  0.0285124950232962 -0.0000000000000000
  0.3667419358474138  0.1606978231932001  0.0000000000000000
  0.6330498568711513  0.0288781257472873 -0.0000000000000000
  0.9714843800428135  0.1614059845886451  0.0000000000000000
  0.1614059845886451  0.9714843800428135  0.0000000000000000
 
  0.00000000E+00  0.00000000E+00  0.00000000E+00
  0.00000000E+00  0.00000000E+00  0.00000000E+00
  0.00000000E+00  0.00000000E+00  0.00000000E+00
  0.00000000E+00  0.00000000E+00  0.00000000E+00
  0.00000000E+00  0.00000000E+00  0.00000000E+00
  0.00000000E+00  0.00000000E+00  0.00000000E+00
  0.00000000E+00  0.00000000E+00  0.00000000E+00
  0.00000000E+00  0.00000000E+00  0.00000000E+00
  0.00000000E+00  0.00000000E+00  0.00000000E+00
  0.00000000E+00  0.00000000E+00  0.00000000E+00
  0.00000000E+00  0.00000000E+00  0.00000000E+00
  0.00000000E+00  0.00000000E+00  0.00000000E+00
  0.00000000E+00  0.00000000E+00  0.00000000E+00
  0.00000000E+00  0.00000000E+00  0.00000000E+00
  0.00000000E+00  0.00000000E+00  0.00000000E+00
  0.00000000E+00  0.00000000E+00  0.00000000E+00
  0.00000000E+00  0.00000000E+00  0.00000000E+00
  0.00000000E+00  0.00000000E+00  0.00000000E+00
  0.00000000E+00  0.00000000E+00  0.00000000E+00
  0.00000000E+00  0.00000000E+00  0.00000000E+00
  0.00000000E+00  0.00000000E+00  0.00000000E+00
  0.00000000E+00  0.00000000E+00  0.00000000E+00
  0.00000000E+00  0.00000000E+00  0.00000000E+00
  0.00000000E+00  0.00000000E+00  0.00000000E+00
  0.00000000E+00  0.00000000E+00  0.00000000E+00
  0.00000000E+00  0.00000000E+00  0.00000000E+00
  0.00000000E+00  0.00000000E+00  0.00000000E+00
  0.00000000E+00  0.00000000E+00  0.00000000E+00
  0.00000000E+00  0.00000000E+00  0.00000000E+00
  0.00000000E+00  0.00000000E+00  0.00000000E+00
  0.00000000E+00  0.00000000E+00  0.00000000E+00
  0.00000000E+00  0.00000000E+00  0.00000000E+00
  0.00000000E+00  0.00000000E+00  0.00000000E+00
  0.00000000E+00  0.00000000E+00  0.00000000E+00
  0.00000000E+00  0.00000000E+00  0.00000000E+00
  0.00000000E+00  0.00000000E+00  0.00000000E+00
  0.00000000E+00  0.00000000E+00  0.00000000E+00
  0.00000000E+00  0.00000000E+00  0.00000000E+00
  0.00000000E+00  0.00000000E+00  0.00000000E+00
  0.00000000E+00  0.00000000E+00  0.00000000E+00
  0.00000000E+00  0.00000000E+00  0.00000000E+00
  0.00000000E+00  0.00000000E+00  0.00000000E+00
  0.00000000E+00  0.00000000E+00  0.00000000E+00
  0.00000000E+00  0.00000000E+00  0.00000000E+00
  0.00000000E+00  0.00000000E+00  0.00000000E+00
  0.00000000E+00  0.00000000E+00  0.00000000E+00
  0.00000000E+00  0.00000000E+00  0.00000000E+00
  0.00000000E+00  0.00000000E+00  0.00000000E+00
  0.00000000E+00  0.00000000E+00  0.00000000E+00
  0.00000000E+00  0.00000000E+00  0.00000000E+00
  0.00000000E+00  0.00000000E+00  0.00000000E+00
