HAT2Cu3                                 
   1.00000000000000     
    12.2042904766935614   -7.0222600741392309    0.0000000000000000
    12.2042904766935614    7.0222600741392309    0.0000000000000000
     0.0000000000000000    0.0000000000000000   15.0000000000000000
   C    Cu   H    N 
    24     3    12    12
Direct
  0.2609680554496260  0.3589112086666240 -0.0000000000000000
  0.3589112086666240  0.2609680554496260  0.0000000000000000
  0.6404979208402344  0.1214545078865664  0.0000000000000000
  0.2669141535055473  0.1668206570159476  0.0000000000000000
  0.8328465945815987  0.9347224746126216 -0.0000000000000000
  0.3595045324523816  0.8785460442812955 -0.0000000000000000
  0.7382637965816463  0.1213043749862267  0.0000000000000000
  0.2670670305467051  0.0651190458142854 -0.0000000000000000
  0.9347224746126216  0.8328465945815987 -0.0000000000000000
  0.2617390218440174  0.8786957352342425 -0.0000000000000000
  0.1213043749862267  0.7382637965816463  0.0000000000000000
  0.7329307609122825  0.9348796927136857 -0.0000000000000000
  0.1671511262279681  0.0652755558981241  0.0000000000000000
  0.8786957352342425  0.2617390218440174  0.0000000000000000
  0.1214545078865664  0.6404979208402344 -0.0000000000000000
  0.0652755558981241  0.1671511262279681  0.0000000000000000
  0.8331781120758983  0.7330834206756179  0.0000000000000000
  0.8785460442812955  0.3595045324523816  0.0000000000000000
  0.7390319765128884  0.6410889645246504 -0.0000000000000000
  0.0651190458142854  0.2670670305467051  0.0000000000000000
  0.7330834206756179  0.8331781120758983 -0.0000000000000000
  0.6410889645246504  0.7390319765128884  0.0000000000000000
  0.9348796927136857  0.7329307609122825  0.0000000000000000
  0.1668206570159476  0.2669141535055473 -0.0000000000000000
  0.0000005714593101  0.0000005714593101  0.0000000000000000
  0.0000022456402817  0.4999973410497134 -0.0000000000000000
  0.4999973410497134  0.0000022456402817  0.0000000000000000
  0.5657209988809947  0.7360887440869787 -0.0000000000000000
  0.2639108223160981  0.4342802339138281  0.0000000000000000
  0.4342802339138281  0.2639108223160981 -0.0000000000000000
  0.7360887440869787  0.5657209988809947  0.0000000000000000
  0.5650291811419138  0.2000738150684948  0.0000000000000000
  0.4349733331723114  0.7999266974628984 -0.0000000000000000
  0.7350562960725110  0.1997629503195585 -0.0000000000000000
  0.2649476379002386  0.8002376824523350  0.0000000000000000
  0.7999266974628984  0.4349733331723114  0.0000000000000000
  0.1997629503195585  0.7350562960725110 -0.0000000000000000
  0.8002376824523350  0.2649476379002386  0.0000000000000000
  0.2000738150684948  0.5650291811419138 -0.0000000000000000
  0.6332413385490623  0.8393350413958369  0.0000000000000000
  0.9711096874261760  0.3669841250553578  0.0000000000000000
  0.8393350413958369  0.6332413385490623 -0.0000000000000000
  0.1606666137589388  0.3667551495981201  0.0000000000000000
  0.0288918855081756  0.6330160245429780  0.0000000000000000
  0.0285511039688011  0.8386087239885487 -0.0000000000000000
  0.3669841250553578  0.9711096874261760 -0.0000000000000000
  0.8386087239885487  0.0285511039688011  0.0000000000000000
  0.3667551495981201  0.1606666137589388 -0.0000000000000000
  0.6330160245429780  0.0288918855081756 -0.0000000000000000
  0.9714457710973012  0.1613912203325552 -0.0000000000000000
  0.1613912203325552  0.9714457710973012  0.0000000000000000
 
  0.00000000E+00  0.00000000E+00  0.00000000E+00
  0.00000000E+00  0.00000000E+00  0.00000000E+00
  0.00000000E+00  0.00000000E+00  0.00000000E+00
  0.00000000E+00  0.00000000E+00  0.00000000E+00
  0.00000000E+00  0.00000000E+00  0.00000000E+00
  0.00000000E+00  0.00000000E+00  0.00000000E+00
  0.00000000E+00  0.00000000E+00  0.00000000E+00
  0.00000000E+00  0.00000000E+00  0.00000000E+00
  0.00000000E+00  0.00000000E+00  0.00000000E+00
  0.00000000E+00  0.00000000E+00  0.00000000E+00
  0.00000000E+00  0.00000000E+00  0.00000000E+00
  0.00000000E+00  0.00000000E+00  0.00000000E+00
  0.00000000E+00  0.00000000E+00  0.00000000E+00
  0.00000000E+00  0.00000000E+00  0.00000000E+00
  0.00000000E+00  0.00000000E+00  0.00000000E+00
  0.00000000E+00  0.00000000E+00  0.00000000E+00
  0.00000000E+00  0.00000000E+00  0.00000000E+00
  0.00000000E+00  0.00000000E+00  0.00000000E+00
  0.00000000E+00  0.00000000E+00  0.00000000E+00
  0.00000000E+00  0.00000000E+00  0.00000000E+00
  0.00000000E+00  0.00000000E+00  0.00000000E+00
  0.00000000E+00  0.00000000E+00  0.00000000E+00
  0.00000000E+00  0.00000000E+00  0.00000000E+00
  0.00000000E+00  0.00000000E+00  0.00000000E+00
  0.00000000E+00  0.00000000E+00  0.00000000E+00
  0.00000000E+00  0.00000000E+00  0.00000000E+00
  0.00000000E+00  0.00000000E+00  0.00000000E+00
  0.00000000E+00  0.00000000E+00  0.00000000E+00
  0.00000000E+00  0.00000000E+00  0.00000000E+00
  0.00000000E+00  0.00000000E+00  0.00000000E+00
  0.00000000E+00  0.00000000E+00  0.00000000E+00
  0.00000000E+00  0.00000000E+00  0.00000000E+00
  0.00000000E+00  0.00000000E+00  0.00000000E+00
  0.00000000E+00  0.00000000E+00  0.00000000E+00
  0.00000000E+00  0.00000000E+00  0.00000000E+00
  0.00000000E+00  0.00000000E+00  0.00000000E+00
  0.00000000E+00  0.00000000E+00  0.00000000E+00
  0.00000000E+00  0.00000000E+00  0.00000000E+00
  0.00000000E+00  0.00000000E+00  0.00000000E+00
  0.00000000E+00  0.00000000E+00  0.00000000E+00
  0.00000000E+00  0.00000000E+00  0.00000000E+00
  0.00000000E+00  0.00000000E+00  0.00000000E+00
  0.00000000E+00  0.00000000E+00  0.00000000E+00
  0.00000000E+00  0.00000000E+00  0.00000000E+00
  0.00000000E+00  0.00000000E+00  0.00000000E+00
  0.00000000E+00  0.00000000E+00  0.00000000E+00
  0.00000000E+00  0.00000000E+00  0.00000000E+00
  0.00000000E+00  0.00000000E+00  0.00000000E+00
  0.00000000E+00  0.00000000E+00  0.00000000E+00
  0.00000000E+00  0.00000000E+00  0.00000000E+00
  0.00000000E+00  0.00000000E+00  0.00000000E+00
