HAT-Cu pinwheel                         
   1.00000000000000     
    24.6000000000000014  -14.2028166200000001    0.0000000000000000
    24.6000000000000014   14.2028166200000001    0.0000000000000000
     0.0000000000000000    0.0000000000000000   20.0000000000000000
   N    C    H    Cu
    48    96    48    12
Direct
  0.7937731998127103  0.5080322382373187  0.2892700358057705
  0.6870432407700648  0.6016144070281767  0.2915633219752470
  0.8825150818207559  0.5206494707693606  0.2915006318725186
  0.6744286495800866  0.7029665712259303  0.2892607482324313
  0.8693529779278579  0.6273849062182045  0.2891911729979190
  0.7680090450821609  0.7161163443048503  0.2915435928603293
  0.3492917993885616  0.8010725369696740  0.2742491324214811
  0.3548707158271406  0.8987289024811398  0.2812243731860058
  0.4411738214969629  0.7017169406209754  0.2819518349217150
  0.4519010206629232  0.8909923028739454  0.3217421552148288
  0.5449125583226756  0.6953800863968795  0.2949250547672652
  0.5451951237322388  0.7873147096077950  0.3394205136193656
  0.2042373927105515  0.7093681495060158  0.2739902530988478
  0.3074652045069703  0.7037939209472304  0.2810714409560017
  0.1967337084223820  0.6175056666822970  0.2819713114135752
  0.3967266042304788  0.6068076754696751  0.3217623778383299
  0.2941526443803337  0.5137654889782501  0.2949476868387578
  0.3863629062877273  0.5135006277907003  0.3394179976499765
  0.4312442368452184  0.3842420625031061  0.2892700358057705
  0.5379741411952934  0.2906599483641830  0.2915633219752470
  0.3425023548168513  0.3716248299507569  0.2915006318725186
  0.5505887870426489  0.1893077295497233  0.2892607482324313
  0.3556644587097352  0.2648893945019135  0.2891911729979190
  0.4570084777575388  0.1761579333432554  0.2915435928603293
  0.8757256687788821  0.0912017953506808  0.2742491324214811
  0.8701467207752663  0.9935453982741782  0.2812243731860058
  0.7838436151406656  0.1905573600991423  0.2819518349217150
  0.7731163613024563  0.0012820525184212  0.3217421552148288
  0.6801049329519945  0.1968941596861754  0.2949250547672652
  0.6798223128701681  0.1049595911475231  0.3394205136193656
  0.0207800123823404  0.1829061196693867  0.2739902530988478
  0.9175522321306369  0.1884803797728802  0.2810714409560017
  0.0282837282355396  0.2747686340581354  0.2819713114135752
  0.8282908008624201  0.2854665937057274  0.3217623778383299
  0.9308647606773649  0.3785087802323668  0.2949476868387578
  0.8386545618797167  0.3787737045296619  0.3394179976499765
  0.2575625518604767  0.0378422189551135  0.2744189070121790
  0.1599148782831725  0.1410797891201035  0.2814466721963072
  0.3569336447920672  0.0303634397452678  0.2819593624809805
  0.1676842661701229  0.2304091182037457  0.3217337971191407
  0.3632856043793882  0.1277616353872270  0.2948786287439333
  0.2713803408078973  0.2199825252029824  0.3394033626294299
  0.9674549394141930  0.8544320271279483  0.2744189070121790
  0.0651025583544347  0.7511945116000001  0.2814466721963072
  0.8680838780476468  0.8619108379028383  0.2819593624809805
  0.0573331704674914  0.6618651825163577  0.3217337971191407
  0.8617318006783036  0.7645126338233829  0.2948786287439333
  0.9536370642497947  0.6722917440076058  0.3394033626294299
  0.7855928748211400  0.5598410036419454  0.2909726180479608
  0.7328232164034625  0.6056133361632887  0.2914120257536003
  0.8327322003266867  0.5664271287344043  0.2913813521717983
  0.7262382062707671  0.6593386909631992  0.2909701367947572
  0.8257312869397049  0.6191966074657105  0.2909392198029083
  0.7720064289604290  0.6663375584121971  0.2913959649323419
  0.7475170601591498  0.5046162644879782  0.2864883565764728
  0.6961719052262820  0.5500366400120055  0.2884948794892535
  0.9249572254418997  0.5297860330645090  0.2883788949354966
  0.6710125159018893  0.7526388558341419  0.2864631449363213
  0.9190250392611744  0.5811343809820233  0.2863620181825257
  0.7164306574230761  0.7585648353671269  0.2884671979880724
  0.3969578214409448  0.8002028965379613  0.2854784008036442
  0.3999355715801749  0.8484450918970838  0.2910374154450729
  0.4459123626686400  0.7474802701223415  0.2892897085627454
  0.4506767271846693  0.8446468842888688  0.3094077074339694
  0.4967394766832514  0.7438380953655350  0.2988870202540185
  0.4980891986084106  0.7926817906568180  0.3158554544654473
  0.3054460767715249  0.8511229985463179  0.2665694078114476
  0.3077453057476849  0.8984819001525872  0.2688934239798091
  0.4896910497400568  0.6535921343112959  0.2791087013127580
  0.4988147017937209  0.8847744370203980  0.3451764928464964
  0.5392380475736367  0.6506373039722535  0.2842669887543792
  0.5444736625407220  0.8335090593887547  0.3558076848992137
  0.2510164567601950  0.6617170989448962  0.2853586126843392
  0.3022352155976576  0.6587418380114106  0.2909452852079436
  0.2472400771633101  0.6127688419608259  0.2892702030464138
  0.3491693598600297  0.6080159039132874  0.3093911641912704
  0.2944277542316570  0.5619457017019860  0.2988867824127485
  0.3446200792840103  0.5606021800974047  0.3158465559600993
  0.2104603047236359  0.7531898164633285  0.2661752750498237
  0.2601146283440046  0.7508962278945563  0.2685774018111228
  0.1971332136275334  0.5689796174759433  0.2791595323537107
  0.4374224884568881  0.5599002099048853  0.3452109943827584
  0.2437308049730897  0.5194360768433681  0.2843122192973546
  0.4318280915284723  0.5142313413611849  0.3558161961116333
  0.4394245071645467  0.3324333517707430  0.2909726180479608
  0.4921942748915292  0.2866609099401018  0.2914120257536003
  0.3922852363312420  0.3258471720060420  0.2913813521717983
  0.4987792303519828  0.2329356098124334  0.2909701367947572
  0.3992861812277457  0.2730777248546513  0.2909392198029083
  0.4530109760972627  0.2259367107984055  0.2913959649323419
  0.4775003218265516  0.3876580909247027  0.2864883565764728
  0.5288455629208473  0.3422376922880278  0.2884948794892535
  0.3000602111808287  0.3624882677111234  0.2883788949354966
  0.5540049207005177  0.1396354449211762  0.2864631449363213
  0.3059924288859336  0.3111399513180028  0.2863620181825257
  0.5085867792348597  0.1337094653733122  0.2884671979880724
  0.8280596151817907  0.0920714042376782  0.2854784008036442
  0.8250818335127240  0.0438291772783186  0.2910374154450729
  0.7791050739540958  0.1447940306532979  0.2892897085627454
  0.7743407956550374  0.0476273933592369  0.3094077074339694
  0.7282780145562113  0.1484361507527200  0.2988870202540185
  0.7269282380495251  0.0995925100836282  0.3158554544654473
  0.9195713598660753  0.0411513021737928  0.2665694078114476
  0.9172721308547147  0.9937924006027308  0.2688934239798091
  0.7353263868826716  0.2386821664643364  0.2791087013127580
  0.7262026801919731  0.0074999183922901  0.3451764928464964
  0.6857793890490989  0.2416369968034002  0.2842669887543792
  0.6805437740968923  0.0587652413313489  0.3558076848992137
  0.9740009252606919  0.2305572564325916  0.2853586126843392
  0.9227822526050006  0.2335324942737511  0.2909452852079436
  0.9777773594391039  0.2795054587944919  0.2892702030464138
  0.8758480767775703  0.2842583968068232  0.3093911641912704
  0.9305896823910784  0.3303285990736537  0.2988867824127485
  0.8803973888834404  0.3316721522229428  0.3158465559600993
  0.0145571319139784  0.1390844842567821  0.2661752750498237
  0.9649028083139315  0.1413780728458831  0.2685774018111228
  0.0278842230100880  0.3232946832441603  0.2791595323537107
  0.7875949250735139  0.3323741770525111  0.3452109943827584
  0.9812866316645247  0.3728382238767423  0.2843122192973546
  0.7931893766538572  0.3780429909036340  0.3558161961116333
  0.2584451801865579  0.0846397849668889  0.2855768966776187
  0.2102095169453531  0.1358679468171080  0.2911442914292171
  0.3111739691748850  0.0808689121232498  0.2893157260019872
  0.2140212199278163  0.1828198505869011  0.3094308105758349
  0.3148282186064841  0.1280495011893338  0.2988805988854877
  0.2659946383771184  0.1782521076749845  0.3158547422926567
  0.2075036817947119  0.0440407450676550  0.2668933305477025
  0.1601463832430214  0.0936951912478432  0.2692719705694975
  0.4050589818637487  0.0307537844331740  0.2790642035120545
  0.1739222632255634  0.2711013791586084  0.3451370537554538
  0.4080189931375323  0.0773439903953422  0.2841982798741502
  0.2251968372501776  0.2654721364975599  0.3557761726316555
  0.9665723111084267  0.8076344611364946  0.2855768966776187
  0.0148079742941096  0.7564062993011826  0.2911442914292171
  0.9138434674830437  0.8114053886171895  0.2893157260019872
  0.0109961305131552  0.7094544732810860  0.3094308105758349
  0.9101891949239110  0.7642248857680840  0.2988805988854877
  0.9590227667157876  0.7140221615004108  0.3158547422926567
  0.0175137232629797  0.8482335241429475  0.2668933305477025
  0.0648709987426584  0.7985791641648519  0.2692719705694975
  0.8199584547589868  0.8615205163424728  0.2790642035120545
  0.0510951418673286  0.6211728900167871  0.3451370537554538
  0.8169984435203894  0.8149303103450899  0.2841982798741502
  0.9998205447151735  0.6268022188948136  0.3557761726316555
  0.7530321602807450  0.4639366931193167  0.2826678672172155
  0.6605700097798701  0.5448504774375202  0.2874567194786325
  0.9657485238112646  0.4941852228555064  0.2873030922248712
  0.6303312369966200  0.7878023599299777  0.2826332194675060
  0.9541863549341271  0.5866539169662635  0.2824987218708945
  0.7112431649140332  0.7993540552460940  0.2874222720935797
  0.2662590956679820  0.8537974396212891  0.2573168728137303
  0.2717883275466909  0.9378876623065389  0.2607193756083011
  0.4869419097218241  0.6170224654451317  0.2719021298174704
  0.4999387402557797  0.9218556088384114  0.3568591151280638
  0.5766870274743312  0.6117152466735016  0.2801841789419736
  0.5813718854502061  0.8294380000402847  0.3785163684672740
  0.1739679081774985  0.7923505775392802  0.2567236450914008
  0.2635776139214284  0.7868387256285321  0.2603327248113751
  0.1578074617618491  0.5717245047504032  0.2719747588020147
  0.4756164221058266  0.5587890903564631  0.3569232097294444
  0.2422613376384293  0.4819777443600600  0.2802464102964004
  0.4646597582390972  0.4773320970453521  0.3785186768022923
  0.4719852763419910  0.4283376076563370  0.2826678672172155
  0.5644474815151215  0.3474237686658772  0.2874567194786325
  0.2592688812464341  0.3980890463550892  0.2873030922248712
  0.5946862542983574  0.1044718861734128  0.2826332194675060
  0.2708310816886085  0.3056203838093761  0.2824987218708945
  0.5137742171068469  0.0929203001313939  0.2874222720935797
  0.9587582862973834  0.0384769157710989  0.2573168728137303
  0.9532291406207528  0.9543866700138159  0.2607193756083011
  0.7380755815379674  0.2752517806934591  0.2719021298174704
  0.7250786964021561  0.9704186919020278  0.3568591151280638
  0.6483304091280686  0.2805590540818091  0.2801841789419736
  0.6436455511522079  0.0628363007150333  0.3785163684672740
  0.0510495284452300  0.0999237232363595  0.2567236450914008
  0.9614398226809718  0.1054355751267930  0.2603327248113751
  0.0672099748405579  0.3205497960049080  0.2719747588020147
  0.7494010460616242  0.3334852419638846  0.3569232097294444
  0.9827560990195138  0.4102965563803721  0.2802464102964004
  0.7603576783836240  0.4149422037302875  0.3785186768022923
  0.2048191461147266  0.0075241776407191  0.2577310189798656
  0.1207240687166827  0.0971342115612964  0.2612896568858106
  0.4416255440774625  0.9914280613130715  0.2718348572089898
  0.1368497790801480  0.3093211739765765  0.3567913591446336
  0.4469434724033020  0.0758662044002969  0.2800762564197235
  0.2292845663602637  0.2982916727069085  0.3784788697718476
  0.0201982043059164  0.8847501462069326  0.2577310189798656
  0.1042933910132650  0.7951400029770360  0.2612896568858106
  0.7833919471972077  0.9008461847699905  0.2718348572089898
  0.0881676890873028  0.5829531583437781  0.3567913591446336
  0.7780739326896041  0.8164080647750983  0.2800762564197235
  0.9957328702976863  0.5939826280335306  0.3784788697718476
  0.6132124448062410  0.6924121383410407  0.2953574213601530
  0.3732858708183029  0.7048391720157279  0.2828848553339361
  0.3594828272677855  0.4454747836914083  0.2953571826056975
  0.6118049918164945  0.1998621624346130  0.2953574213601530
  0.8517315658044328  0.1874351287599045  0.2828848553339361
  0.8655346093549361  0.4467995170842383  0.2953571826056975
  0.3662403862750718  0.1931048878117630  0.2953105054656438
  0.8587770503273424  0.6991694129435694  0.2953105054656438
  0.3538193005148224  0.9655942196187361  0.2829540780116570
  0.0930633072486373  0.2069163833784269  0.2830188627043169
  0.8711981477572611  0.9266800973124283  0.2829540780116570
  0.1319541455296019  0.6853579290465749  0.2830188627043169
 
  0.00000000E+00  0.00000000E+00  0.00000000E+00
  0.00000000E+00  0.00000000E+00  0.00000000E+00
  0.00000000E+00  0.00000000E+00  0.00000000E+00
  0.00000000E+00  0.00000000E+00  0.00000000E+00
  0.00000000E+00  0.00000000E+00  0.00000000E+00
  0.00000000E+00  0.00000000E+00  0.00000000E+00
  0.00000000E+00  0.00000000E+00  0.00000000E+00
  0.00000000E+00  0.00000000E+00  0.00000000E+00
  0.00000000E+00  0.00000000E+00  0.00000000E+00
  0.00000000E+00  0.00000000E+00  0.00000000E+00
  0.00000000E+00  0.00000000E+00  0.00000000E+00
  0.00000000E+00  0.00000000E+00  0.00000000E+00
  0.00000000E+00  0.00000000E+00  0.00000000E+00
  0.00000000E+00  0.00000000E+00  0.00000000E+00
  0.00000000E+00  0.00000000E+00  0.00000000E+00
  0.00000000E+00  0.00000000E+00  0.00000000E+00
  0.00000000E+00  0.00000000E+00  0.00000000E+00
  0.00000000E+00  0.00000000E+00  0.00000000E+00
  0.00000000E+00  0.00000000E+00  0.00000000E+00
  0.00000000E+00  0.00000000E+00  0.00000000E+00
  0.00000000E+00  0.00000000E+00  0.00000000E+00
  0.00000000E+00  0.00000000E+00  0.00000000E+00
  0.00000000E+00  0.00000000E+00  0.00000000E+00
  0.00000000E+00  0.00000000E+00  0.00000000E+00
  0.00000000E+00  0.00000000E+00  0.00000000E+00
  0.00000000E+00  0.00000000E+00  0.00000000E+00
  0.00000000E+00  0.00000000E+00  0.00000000E+00
  0.00000000E+00  0.00000000E+00  0.00000000E+00
  0.00000000E+00  0.00000000E+00  0.00000000E+00
  0.00000000E+00  0.00000000E+00  0.00000000E+00
  0.00000000E+00  0.00000000E+00  0.00000000E+00
  0.00000000E+00  0.00000000E+00  0.00000000E+00
  0.00000000E+00  0.00000000E+00  0.00000000E+00
  0.00000000E+00  0.00000000E+00  0.00000000E+00
  0.00000000E+00  0.00000000E+00  0.00000000E+00
  0.00000000E+00  0.00000000E+00  0.00000000E+00
  0.00000000E+00  0.00000000E+00  0.00000000E+00
  0.00000000E+00  0.00000000E+00  0.00000000E+00
  0.00000000E+00  0.00000000E+00  0.00000000E+00
  0.00000000E+00  0.00000000E+00  0.00000000E+00
  0.00000000E+00  0.00000000E+00  0.00000000E+00
  0.00000000E+00  0.00000000E+00  0.00000000E+00
  0.00000000E+00  0.00000000E+00  0.00000000E+00
  0.00000000E+00  0.00000000E+00  0.00000000E+00
  0.00000000E+00  0.00000000E+00  0.00000000E+00
  0.00000000E+00  0.00000000E+00  0.00000000E+00
  0.00000000E+00  0.00000000E+00  0.00000000E+00
  0.00000000E+00  0.00000000E+00  0.00000000E+00
  0.00000000E+00  0.00000000E+00  0.00000000E+00
  0.00000000E+00  0.00000000E+00  0.00000000E+00
  0.00000000E+00  0.00000000E+00  0.00000000E+00
  0.00000000E+00  0.00000000E+00  0.00000000E+00
  0.00000000E+00  0.00000000E+00  0.00000000E+00
  0.00000000E+00  0.00000000E+00  0.00000000E+00
  0.00000000E+00  0.00000000E+00  0.00000000E+00
  0.00000000E+00  0.00000000E+00  0.00000000E+00
  0.00000000E+00  0.00000000E+00  0.00000000E+00
  0.00000000E+00  0.00000000E+00  0.00000000E+00
  0.00000000E+00  0.00000000E+00  0.00000000E+00
  0.00000000E+00  0.00000000E+00  0.00000000E+00
  0.00000000E+00  0.00000000E+00  0.00000000E+00
  0.00000000E+00  0.00000000E+00  0.00000000E+00
  0.00000000E+00  0.00000000E+00  0.00000000E+00
  0.00000000E+00  0.00000000E+00  0.00000000E+00
  0.00000000E+00  0.00000000E+00  0.00000000E+00
  0.00000000E+00  0.00000000E+00  0.00000000E+00
  0.00000000E+00  0.00000000E+00  0.00000000E+00
  0.00000000E+00  0.00000000E+00  0.00000000E+00
  0.00000000E+00  0.00000000E+00  0.00000000E+00
  0.00000000E+00  0.00000000E+00  0.00000000E+00
  0.00000000E+00  0.00000000E+00  0.00000000E+00
  0.00000000E+00  0.00000000E+00  0.00000000E+00
  0.00000000E+00  0.00000000E+00  0.00000000E+00
  0.00000000E+00  0.00000000E+00  0.00000000E+00
  0.00000000E+00  0.00000000E+00  0.00000000E+00
  0.00000000E+00  0.00000000E+00  0.00000000E+00
  0.00000000E+00  0.00000000E+00  0.00000000E+00
  0.00000000E+00  0.00000000E+00  0.00000000E+00
  0.00000000E+00  0.00000000E+00  0.00000000E+00
  0.00000000E+00  0.00000000E+00  0.00000000E+00
  0.00000000E+00  0.00000000E+00  0.00000000E+00
  0.00000000E+00  0.00000000E+00  0.00000000E+00
  0.00000000E+00  0.00000000E+00  0.00000000E+00
  0.00000000E+00  0.00000000E+00  0.00000000E+00
  0.00000000E+00  0.00000000E+00  0.00000000E+00
  0.00000000E+00  0.00000000E+00  0.00000000E+00
  0.00000000E+00  0.00000000E+00  0.00000000E+00
  0.00000000E+00  0.00000000E+00  0.00000000E+00
  0.00000000E+00  0.00000000E+00  0.00000000E+00
  0.00000000E+00  0.00000000E+00  0.00000000E+00
  0.00000000E+00  0.00000000E+00  0.00000000E+00
  0.00000000E+00  0.00000000E+00  0.00000000E+00
  0.00000000E+00  0.00000000E+00  0.00000000E+00
  0.00000000E+00  0.00000000E+00  0.00000000E+00
  0.00000000E+00  0.00000000E+00  0.00000000E+00
  0.00000000E+00  0.00000000E+00  0.00000000E+00
  0.00000000E+00  0.00000000E+00  0.00000000E+00
  0.00000000E+00  0.00000000E+00  0.00000000E+00
  0.00000000E+00  0.00000000E+00  0.00000000E+00
  0.00000000E+00  0.00000000E+00  0.00000000E+00
  0.00000000E+00  0.00000000E+00  0.00000000E+00
  0.00000000E+00  0.00000000E+00  0.00000000E+00
  0.00000000E+00  0.00000000E+00  0.00000000E+00
  0.00000000E+00  0.00000000E+00  0.00000000E+00
  0.00000000E+00  0.00000000E+00  0.00000000E+00
  0.00000000E+00  0.00000000E+00  0.00000000E+00
  0.00000000E+00  0.00000000E+00  0.00000000E+00
  0.00000000E+00  0.00000000E+00  0.00000000E+00
  0.00000000E+00  0.00000000E+00  0.00000000E+00
  0.00000000E+00  0.00000000E+00  0.00000000E+00
  0.00000000E+00  0.00000000E+00  0.00000000E+00
  0.00000000E+00  0.00000000E+00  0.00000000E+00
  0.00000000E+00  0.00000000E+00  0.00000000E+00
  0.00000000E+00  0.00000000E+00  0.00000000E+00
  0.00000000E+00  0.00000000E+00  0.00000000E+00
  0.00000000E+00  0.00000000E+00  0.00000000E+00
  0.00000000E+00  0.00000000E+00  0.00000000E+00
  0.00000000E+00  0.00000000E+00  0.00000000E+00
  0.00000000E+00  0.00000000E+00  0.00000000E+00
  0.00000000E+00  0.00000000E+00  0.00000000E+00
  0.00000000E+00  0.00000000E+00  0.00000000E+00
  0.00000000E+00  0.00000000E+00  0.00000000E+00
  0.00000000E+00  0.00000000E+00  0.00000000E+00
  0.00000000E+00  0.00000000E+00  0.00000000E+00
  0.00000000E+00  0.00000000E+00  0.00000000E+00
  0.00000000E+00  0.00000000E+00  0.00000000E+00
  0.00000000E+00  0.00000000E+00  0.00000000E+00
  0.00000000E+00  0.00000000E+00  0.00000000E+00
  0.00000000E+00  0.00000000E+00  0.00000000E+00
  0.00000000E+00  0.00000000E+00  0.00000000E+00
  0.00000000E+00  0.00000000E+00  0.00000000E+00
  0.00000000E+00  0.00000000E+00  0.00000000E+00
  0.00000000E+00  0.00000000E+00  0.00000000E+00
  0.00000000E+00  0.00000000E+00  0.00000000E+00
  0.00000000E+00  0.00000000E+00  0.00000000E+00
  0.00000000E+00  0.00000000E+00  0.00000000E+00
  0.00000000E+00  0.00000000E+00  0.00000000E+00
  0.00000000E+00  0.00000000E+00  0.00000000E+00
  0.00000000E+00  0.00000000E+00  0.00000000E+00
  0.00000000E+00  0.00000000E+00  0.00000000E+00
  0.00000000E+00  0.00000000E+00  0.00000000E+00
  0.00000000E+00  0.00000000E+00  0.00000000E+00
  0.00000000E+00  0.00000000E+00  0.00000000E+00
  0.00000000E+00  0.00000000E+00  0.00000000E+00
  0.00000000E+00  0.00000000E+00  0.00000000E+00
  0.00000000E+00  0.00000000E+00  0.00000000E+00
  0.00000000E+00  0.00000000E+00  0.00000000E+00
  0.00000000E+00  0.00000000E+00  0.00000000E+00
  0.00000000E+00  0.00000000E+00  0.00000000E+00
  0.00000000E+00  0.00000000E+00  0.00000000E+00
  0.00000000E+00  0.00000000E+00  0.00000000E+00
  0.00000000E+00  0.00000000E+00  0.00000000E+00
  0.00000000E+00  0.00000000E+00  0.00000000E+00
  0.00000000E+00  0.00000000E+00  0.00000000E+00
  0.00000000E+00  0.00000000E+00  0.00000000E+00
  0.00000000E+00  0.00000000E+00  0.00000000E+00
  0.00000000E+00  0.00000000E+00  0.00000000E+00
  0.00000000E+00  0.00000000E+00  0.00000000E+00
  0.00000000E+00  0.00000000E+00  0.00000000E+00
  0.00000000E+00  0.00000000E+00  0.00000000E+00
  0.00000000E+00  0.00000000E+00  0.00000000E+00
  0.00000000E+00  0.00000000E+00  0.00000000E+00
  0.00000000E+00  0.00000000E+00  0.00000000E+00
  0.00000000E+00  0.00000000E+00  0.00000000E+00
  0.00000000E+00  0.00000000E+00  0.00000000E+00
  0.00000000E+00  0.00000000E+00  0.00000000E+00
  0.00000000E+00  0.00000000E+00  0.00000000E+00
  0.00000000E+00  0.00000000E+00  0.00000000E+00
  0.00000000E+00  0.00000000E+00  0.00000000E+00
  0.00000000E+00  0.00000000E+00  0.00000000E+00
  0.00000000E+00  0.00000000E+00  0.00000000E+00
  0.00000000E+00  0.00000000E+00  0.00000000E+00
  0.00000000E+00  0.00000000E+00  0.00000000E+00
  0.00000000E+00  0.00000000E+00  0.00000000E+00
  0.00000000E+00  0.00000000E+00  0.00000000E+00
  0.00000000E+00  0.00000000E+00  0.00000000E+00
  0.00000000E+00  0.00000000E+00  0.00000000E+00
  0.00000000E+00  0.00000000E+00  0.00000000E+00
  0.00000000E+00  0.00000000E+00  0.00000000E+00
  0.00000000E+00  0.00000000E+00  0.00000000E+00
  0.00000000E+00  0.00000000E+00  0.00000000E+00
  0.00000000E+00  0.00000000E+00  0.00000000E+00
  0.00000000E+00  0.00000000E+00  0.00000000E+00
  0.00000000E+00  0.00000000E+00  0.00000000E+00
  0.00000000E+00  0.00000000E+00  0.00000000E+00
  0.00000000E+00  0.00000000E+00  0.00000000E+00
  0.00000000E+00  0.00000000E+00  0.00000000E+00
  0.00000000E+00  0.00000000E+00  0.00000000E+00
  0.00000000E+00  0.00000000E+00  0.00000000E+00
  0.00000000E+00  0.00000000E+00  0.00000000E+00
  0.00000000E+00  0.00000000E+00  0.00000000E+00
  0.00000000E+00  0.00000000E+00  0.00000000E+00
  0.00000000E+00  0.00000000E+00  0.00000000E+00
  0.00000000E+00  0.00000000E+00  0.00000000E+00
  0.00000000E+00  0.00000000E+00  0.00000000E+00
  0.00000000E+00  0.00000000E+00  0.00000000E+00
  0.00000000E+00  0.00000000E+00  0.00000000E+00
  0.00000000E+00  0.00000000E+00  0.00000000E+00
  0.00000000E+00  0.00000000E+00  0.00000000E+00
  0.00000000E+00  0.00000000E+00  0.00000000E+00
  0.00000000E+00  0.00000000E+00  0.00000000E+00
  0.00000000E+00  0.00000000E+00  0.00000000E+00
  0.00000000E+00  0.00000000E+00  0.00000000E+00
  0.00000000E+00  0.00000000E+00  0.00000000E+00
