Cu3 Ag75 H37 C24 N12                    
   1.00000000000000     
    14.6550000000000011    0.0000000000000000    0.0000000000000000
     7.3275000000000006   12.6916022924609493    0.0000000000000000
     0.0000000000000000    0.0000000000000000   32.7551300689273077
   Cu   Ag   H    C    N 
     3    75    37    24    12
Selective dynamics
Direct
  0.9975405046854494  0.9975405046854494  0.2238071089395445   T   T   T
  0.0343428969821694  0.5004076736007045  0.2231476060609538   T   T   T
  0.5004076736007045  0.0343428969821694  0.2231476060609538   T   T   T
  0.0000000000000000  0.0000000000000000  0.0000000000000000   F   F   F
  0.0000000000000000  0.2000000000000028  0.0000000000000000   F   F   F
  0.0000000000000000  0.3999999999999986  0.0000000000000000   F   F   F
  0.0000000000000000  0.6000000000000014  0.0000000000000000   F   F   F
  0.0000000000000000  0.7999999999999972  0.0000000000000000   F   F   F
  0.2000000000000028  0.0000000000000000  0.0000000000000000   F   F   F
  0.2000000000000028  0.2000000000000028  0.0000000000000000   F   F   F
  0.2000000000000028  0.3999999999999986  0.0000000000000000   F   F   F
  0.2000000000000028  0.6000000000000014  0.0000000000000000   F   F   F
  0.2000000000000028  0.7999999999999972  0.0000000000000000   F   F   F
  0.3999999999999986  0.0000000000000000  0.0000000000000000   F   F   F
  0.3999999999999986  0.2000000000000028  0.0000000000000000   F   F   F
  0.3999999999999986  0.3999999999999986  0.0000000000000000   F   F   F
  0.3999999999999986  0.6000000000000014  0.0000000000000000   F   F   F
  0.3999999999999986  0.7999999999999972  0.0000000000000000   F   F   F
  0.6000000000000014  0.0000000000000000  0.0000000000000000   F   F   F
  0.6000000000000014  0.2000000000000028  0.0000000000000000   F   F   F
  0.6000000000000014  0.3999999999999986  0.0000000000000000   F   F   F
  0.6000000000000014  0.6000000000000014  0.0000000000000000   F   F   F
  0.6000000000000014  0.7999999999999972  0.0000000000000000   F   F   F
  0.7999999999999972  0.0000000000000000  0.0000000000000000   F   F   F
  0.7999999999999972  0.2000000000000028  0.0000000000000000   F   F   F
  0.7999999999999972  0.3999999999999986  0.0000000000000000   F   F   F
  0.7999999999999972  0.6000000000000014  0.0000000000000000   F   F   F
  0.7999999999999972  0.7999999999999972  0.0000000000000000   F   F   F
  0.0659790314455701  0.0659790314455701  0.0739467096104285   T   T   T
  0.0658610414239600  0.2672111943608296  0.0736140507640170   T   T   T
  0.0657950596873593  0.4670907894203531  0.0737543406971323   T   T   T
  0.0676900017039179  0.6657474993654320  0.0739424186852705   T   T   T
  0.0672440549512876  0.8657317931631238  0.0741805466695468   T   T   T
  0.2672111943608296  0.0658610414239600  0.0736140507640170   T   T   T
  0.2662991560177794  0.2662991560177794  0.0748744058367873   T   T   T
  0.2660771822465431  0.4655334198870333  0.0746854753585680   T   T   T
  0.2665187451226649  0.6657695406705861  0.0741725846352913   T   T   T
  0.2651098759035460  0.8665965404813513  0.0744891734236233   T   T   T
  0.4670907894203531  0.0657950596873593  0.0737543406971323   T   T   T
  0.4655334198870333  0.2660771822465431  0.0746854753585680   T   T   T
  0.4660618815754982  0.4660618815754982  0.0742484490753799   T   T   T
  0.4658472040798196  0.6660840172605930  0.0739557360979418   T   T   T
  0.4675608283782332  0.8661968472826688  0.0741269922792662   T   T   T
  0.6657474993654320  0.0676900017039179  0.0739424186852705   T   T   T
  0.6657695406705861  0.2665187451226649  0.0741725846352913   T   T   T
  0.6660840172605930  0.4658472040798196  0.0739557360979418   T   T   T
  0.6656880914239937  0.6656880914239937  0.0731079928435114   T   T   T
  0.6652492359180792  0.8673650994889364  0.0732448605691022   T   T   T
  0.8657317931631238  0.0672440549512876  0.0741805466695468   T   T   T
  0.8665965404813513  0.2651098759035460  0.0744891734236233   T   T   T
  0.8661968472826688  0.4675608283782332  0.0741269922792662   T   T   T
  0.8673650994889364  0.6652492359180792  0.0732448605691022   T   T   T
  0.8674051837263722  0.8674051837263722  0.0734971926189527   T   T   T
  0.1338386082964101  0.1338386082964101  0.1433217447204966   T   T   T
  0.1300626496441136  0.3354778947492369  0.1447822205794544   T   T   T
  0.1310535248028227  0.5324014137867690  0.1453692964443491   T   T   T
  0.1341987506345133  0.7317652572438281  0.1453910243016181   T   T   T
  0.1311014158761523  0.9340506284709066  0.1463309174770425   T   T   T
  0.3354778947492369  0.1300626496441136  0.1447822205794544   T   T   T
  0.3329596225848769  0.3329596225848769  0.1463790341772857   T   T   T
  0.3329925113816992  0.5321808917572266  0.1460285840599959   T   T   T
  0.3332704081434064  0.7317846425225909  0.1453219727406928   T   T   T
  0.3343808907663851  0.9309831447787693  0.1440768476735729   T   T   T
  0.5324014137867690  0.1310535248028227  0.1453692964443491   T   T   T
  0.5321808917572266  0.3329925113816992  0.1460285840599959   T   T   T
  0.5323970728507512  0.5323970728507512  0.1462431886024810   T   T   T
  0.5331177618368120  0.7316148828357583  0.1446634657728268   T   T   T
  0.5335292663237056  0.9325201403049647  0.1468673461275702   T   T   T
  0.7317652572438281  0.1341987506345133  0.1453910243016181   T   T   T
  0.7317846425225909  0.3332704081434064  0.1453219727406928   T   T   T
  0.7316148828357583  0.5331177618368120  0.1446634657728268   T   T   T
  0.7322159237108278  0.7322159237108278  0.1420661316629137   T   T   T
  0.7338674760811913  0.9315411644720382  0.1430252440817552   T   T   T
  0.9340506284709066  0.1311014158761523  0.1463309174770425   T   T   T
  0.9309831447787693  0.3343808907663851  0.1440768476735729   T   T   T
  0.9325201403049647  0.5335292663237056  0.1468673461275702   T   T   T
  0.9315411644720382  0.7338674760811913  0.1430252440817552   T   T   T
  0.9340102293682685  0.9340102293682685  0.1450982974817805   T   T   T
  0.1334333924204013  0.1334333924204013  0.9752937467114740   T   T   T
  0.1334801173262574  0.3333697321795713  0.9755404012341466   T   T   T
  0.1332258506836262  0.5331686855722461  0.9754180675805479   T   T   T
  0.1333154496914954  0.7333647454098619  0.9754484828711104   T   T   T
  0.1330190426382951  0.9335090349287148  0.9755786336767922   T   T   T
  0.3333697321795713  0.1334801173262574  0.9755404012341466   T   T   T
  0.3333420826080620  0.3333420826080620  0.9752670168541137   T   T   T
  0.3333108708671773  0.5332442706822251  0.9757209752643021   T   T   T
  0.3333450982193845  0.7336860163847718  0.9755859522905379   T   T   T
  0.3334689130386394  0.9328794469362712  0.9755586121016268   T   T   T
  0.5331686855722461  0.1332258506836262  0.9754180675805479   T   T   T
  0.5332442706822251  0.3333108708671773  0.9757209752643021   T   T   T
  0.5332995691678308  0.5332995691678308  0.9756642952415348   T   T   T
  0.5332105443613019  0.7336002128712810  0.9755449207678994   T   T   T
  0.5332100503181203  0.9336565827151944  0.9754405260024425   T   T   T
  0.7333647454098619  0.1333154496914954  0.9754484828711104   T   T   T
  0.7336860163847718  0.3333450982193845  0.9755859522905379   T   T   T
  0.7336002128712810  0.5332105443613019  0.9755449207678994   T   T   T
  0.7334760018166635  0.7334760018166635  0.9754049221016491   T   T   T
  0.7336658641253412  0.9327356014015701  0.9753463901368314   T   T   T
  0.9335090349287148  0.1330190426382951  0.9755786336767922   T   T   T
  0.9328794469362712  0.3334689130386394  0.9755586121016268   T   T   T
  0.9336565827151944  0.5332100503181203  0.9754405260024425   T   T   T
  0.9327356014015701  0.7336658641253412  0.9753463901368314   T   T   T
  0.9335015427585883  0.9335015427585883  0.9754393185780236   T   T   T
  0.5745933545466758  0.7435752379250397  0.2373541862874226   T   T   T
  0.2599915513011343  0.4262998343743987  0.2348089252624030   T   T   T
  0.4262998343743987  0.2599915513011343  0.2348089252624030   T   T   T
  0.7435752379250397  0.5745933545466758  0.2373541862874226   T   T   T
  0.5773554440084562  0.1889360956247442  0.2309592821021708   T   T   T
  0.4257821491896213  0.8149530709323093  0.2335410892921709   T   T   T
  0.7444439332274753  0.1867973751796417  0.2334269637635887   T   T   T
  0.2587296792577978  0.8135981994237546  0.2340074543694969   T   T   T
  0.8149530709323093  0.4257821491896213  0.2335410892921709   T   T   T
  0.1867973751796417  0.7444439332274753  0.2334269637635887   T   T   T
  0.8135981994237546  0.2587296792577978  0.2340074543694969   T   T   T
  0.1889360956247442  0.5773554440084562  0.2309592821021708   T   T   T
  0.2585787948132232  0.3528091288073467  0.2356193174100261   T   T   T
  0.3528091288073467  0.2585787948132232  0.2356193174100261   T   T   T
  0.6499712980394609  0.1133967270277704  0.2332874288851958   T   T   T
  0.2637251463422588  0.1667432451413687  0.2400559574330611   T   T   T
  0.8342068658254147  0.9326415355207993  0.2391590395016919   T   T   T
  0.3519381503536662  0.8895904777820129  0.2355915474101358   T   T   T
  0.7455524763235281  0.1120833305000207  0.2340117316074427   T   T   T
  0.2630288821619385  0.0685553682018251  0.2404747129586479   T   T   T
  0.9326415355207993  0.8342068658254147  0.2391590395016919   T   T   T
  0.2567981660464798  0.8887053111286372  0.2357635275327772   T   T   T
  0.1120833305000207  0.7455524763235281  0.2340117316074427   T   T   T
  0.7368557166513910  0.9333800900865578  0.2385518722016599   T   T   T
  0.1658494682536083  0.0681159360657784  0.2397168729502077   T   T   T
  0.8887053111286372  0.2567981660464798  0.2357635275327772   T   T   T
  0.1133967270277704  0.6499712980394609  0.2332874288851958   T   T   T
  0.0681159360657784  0.1658494682536083  0.2397168729502077   T   T   T
  0.8349814448985855  0.7374626492365298  0.2398058704609279   T   T   T
  0.8895904777820129  0.3519381503536662  0.2355915474101358   T   T   T
  0.7443143256848151  0.6486045920111689  0.2380829851795151   T   T   T
  0.0685553682018251  0.2630288821619385  0.2404747129586479   T   T   T
  0.7374626492365298  0.8349814448985855  0.2398058704609279   T   T   T
  0.6486045920111689  0.7443143256848151  0.2380829851795151   T   T   T
  0.9333800900865578  0.7368557166513910  0.2385518722016599   T   T   T
  0.1667432451413687  0.2637251463422588  0.2400559574330611   T   T   T
  0.6431669541735976  0.8383547195747698  0.2392938727017963   T   T   T
  0.9780466910904854  0.3575325073719380  0.2390353047920525   T   T   T
  0.8383547195747698  0.6431669541735976  0.2392938727017963   T   T   T
  0.1621580793821200  0.3597055256148303  0.2373640645647435   T   T   T
  0.0254686346452844  0.6414179693758538  0.2361128897778465   T   T   T
  0.0226621981270603  0.8405258666446320  0.2378682965968728   T   T   T
  0.3575325073719380  0.9780466910904854  0.2390353047920525   T   T   T
  0.8405258666446320  0.0226621981270603  0.2378682965968728   T   T   T
  0.3597055256148303  0.1621580793821200  0.2373640645647435   T   T   T
  0.6414179693758538  0.0254686346452844  0.2361128897778465   T   T   T
  0.9768882560571519  0.1619920080754803  0.2383025495631519   T   T   T
  0.1619920080754803  0.9768882560571590  0.2383025495631519   T   T   T
 
  0.00000000E+00  0.00000000E+00  0.00000000E+00
  0.00000000E+00  0.00000000E+00  0.00000000E+00
  0.00000000E+00  0.00000000E+00  0.00000000E+00
  0.00000000E+00  0.00000000E+00  0.00000000E+00
  0.00000000E+00  0.00000000E+00  0.00000000E+00
  0.00000000E+00  0.00000000E+00  0.00000000E+00
  0.00000000E+00  0.00000000E+00  0.00000000E+00
  0.00000000E+00  0.00000000E+00  0.00000000E+00
  0.00000000E+00  0.00000000E+00  0.00000000E+00
  0.00000000E+00  0.00000000E+00  0.00000000E+00
  0.00000000E+00  0.00000000E+00  0.00000000E+00
  0.00000000E+00  0.00000000E+00  0.00000000E+00
  0.00000000E+00  0.00000000E+00  0.00000000E+00
  0.00000000E+00  0.00000000E+00  0.00000000E+00
  0.00000000E+00  0.00000000E+00  0.00000000E+00
  0.00000000E+00  0.00000000E+00  0.00000000E+00
  0.00000000E+00  0.00000000E+00  0.00000000E+00
  0.00000000E+00  0.00000000E+00  0.00000000E+00
  0.00000000E+00  0.00000000E+00  0.00000000E+00
  0.00000000E+00  0.00000000E+00  0.00000000E+00
  0.00000000E+00  0.00000000E+00  0.00000000E+00
  0.00000000E+00  0.00000000E+00  0.00000000E+00
  0.00000000E+00  0.00000000E+00  0.00000000E+00
  0.00000000E+00  0.00000000E+00  0.00000000E+00
  0.00000000E+00  0.00000000E+00  0.00000000E+00
  0.00000000E+00  0.00000000E+00  0.00000000E+00
  0.00000000E+00  0.00000000E+00  0.00000000E+00
  0.00000000E+00  0.00000000E+00  0.00000000E+00
  0.00000000E+00  0.00000000E+00  0.00000000E+00
  0.00000000E+00  0.00000000E+00  0.00000000E+00
  0.00000000E+00  0.00000000E+00  0.00000000E+00
  0.00000000E+00  0.00000000E+00  0.00000000E+00
  0.00000000E+00  0.00000000E+00  0.00000000E+00
  0.00000000E+00  0.00000000E+00  0.00000000E+00
  0.00000000E+00  0.00000000E+00  0.00000000E+00
  0.00000000E+00  0.00000000E+00  0.00000000E+00
  0.00000000E+00  0.00000000E+00  0.00000000E+00
  0.00000000E+00  0.00000000E+00  0.00000000E+00
  0.00000000E+00  0.00000000E+00  0.00000000E+00
  0.00000000E+00  0.00000000E+00  0.00000000E+00
  0.00000000E+00  0.00000000E+00  0.00000000E+00
  0.00000000E+00  0.00000000E+00  0.00000000E+00
  0.00000000E+00  0.00000000E+00  0.00000000E+00
  0.00000000E+00  0.00000000E+00  0.00000000E+00
  0.00000000E+00  0.00000000E+00  0.00000000E+00
  0.00000000E+00  0.00000000E+00  0.00000000E+00
  0.00000000E+00  0.00000000E+00  0.00000000E+00
  0.00000000E+00  0.00000000E+00  0.00000000E+00
  0.00000000E+00  0.00000000E+00  0.00000000E+00
  0.00000000E+00  0.00000000E+00  0.00000000E+00
  0.00000000E+00  0.00000000E+00  0.00000000E+00
  0.00000000E+00  0.00000000E+00  0.00000000E+00
  0.00000000E+00  0.00000000E+00  0.00000000E+00
  0.00000000E+00  0.00000000E+00  0.00000000E+00
  0.00000000E+00  0.00000000E+00  0.00000000E+00
  0.00000000E+00  0.00000000E+00  0.00000000E+00
  0.00000000E+00  0.00000000E+00  0.00000000E+00
  0.00000000E+00  0.00000000E+00  0.00000000E+00
  0.00000000E+00  0.00000000E+00  0.00000000E+00
  0.00000000E+00  0.00000000E+00  0.00000000E+00
  0.00000000E+00  0.00000000E+00  0.00000000E+00
  0.00000000E+00  0.00000000E+00  0.00000000E+00
  0.00000000E+00  0.00000000E+00  0.00000000E+00
  0.00000000E+00  0.00000000E+00  0.00000000E+00
  0.00000000E+00  0.00000000E+00  0.00000000E+00
  0.00000000E+00  0.00000000E+00  0.00000000E+00
  0.00000000E+00  0.00000000E+00  0.00000000E+00
  0.00000000E+00  0.00000000E+00  0.00000000E+00
  0.00000000E+00  0.00000000E+00  0.00000000E+00
  0.00000000E+00  0.00000000E+00  0.00000000E+00
  0.00000000E+00  0.00000000E+00  0.00000000E+00
  0.00000000E+00  0.00000000E+00  0.00000000E+00
  0.00000000E+00  0.00000000E+00  0.00000000E+00
  0.00000000E+00  0.00000000E+00  0.00000000E+00
  0.00000000E+00  0.00000000E+00  0.00000000E+00
  0.00000000E+00  0.00000000E+00  0.00000000E+00
  0.00000000E+00  0.00000000E+00  0.00000000E+00
  0.00000000E+00  0.00000000E+00  0.00000000E+00
  0.00000000E+00  0.00000000E+00  0.00000000E+00
  0.00000000E+00  0.00000000E+00  0.00000000E+00
  0.00000000E+00  0.00000000E+00  0.00000000E+00
  0.00000000E+00  0.00000000E+00  0.00000000E+00
  0.00000000E+00  0.00000000E+00  0.00000000E+00
  0.00000000E+00  0.00000000E+00  0.00000000E+00
  0.00000000E+00  0.00000000E+00  0.00000000E+00
  0.00000000E+00  0.00000000E+00  0.00000000E+00
  0.00000000E+00  0.00000000E+00  0.00000000E+00
  0.00000000E+00  0.00000000E+00  0.00000000E+00
  0.00000000E+00  0.00000000E+00  0.00000000E+00
  0.00000000E+00  0.00000000E+00  0.00000000E+00
  0.00000000E+00  0.00000000E+00  0.00000000E+00
  0.00000000E+00  0.00000000E+00  0.00000000E+00
  0.00000000E+00  0.00000000E+00  0.00000000E+00
  0.00000000E+00  0.00000000E+00  0.00000000E+00
  0.00000000E+00  0.00000000E+00  0.00000000E+00
  0.00000000E+00  0.00000000E+00  0.00000000E+00
  0.00000000E+00  0.00000000E+00  0.00000000E+00
  0.00000000E+00  0.00000000E+00  0.00000000E+00
  0.00000000E+00  0.00000000E+00  0.00000000E+00
  0.00000000E+00  0.00000000E+00  0.00000000E+00
  0.00000000E+00  0.00000000E+00  0.00000000E+00
  0.00000000E+00  0.00000000E+00  0.00000000E+00
  0.00000000E+00  0.00000000E+00  0.00000000E+00
  0.00000000E+00  0.00000000E+00  0.00000000E+00
  0.00000000E+00  0.00000000E+00  0.00000000E+00
  0.00000000E+00  0.00000000E+00  0.00000000E+00
  0.00000000E+00  0.00000000E+00  0.00000000E+00
  0.00000000E+00  0.00000000E+00  0.00000000E+00
  0.00000000E+00  0.00000000E+00  0.00000000E+00
  0.00000000E+00  0.00000000E+00  0.00000000E+00
  0.00000000E+00  0.00000000E+00  0.00000000E+00
  0.00000000E+00  0.00000000E+00  0.00000000E+00
  0.00000000E+00  0.00000000E+00  0.00000000E+00
  0.00000000E+00  0.00000000E+00  0.00000000E+00
  0.00000000E+00  0.00000000E+00  0.00000000E+00
  0.00000000E+00  0.00000000E+00  0.00000000E+00
  0.00000000E+00  0.00000000E+00  0.00000000E+00
  0.00000000E+00  0.00000000E+00  0.00000000E+00
  0.00000000E+00  0.00000000E+00  0.00000000E+00
  0.00000000E+00  0.00000000E+00  0.00000000E+00
  0.00000000E+00  0.00000000E+00  0.00000000E+00
  0.00000000E+00  0.00000000E+00  0.00000000E+00
  0.00000000E+00  0.00000000E+00  0.00000000E+00
  0.00000000E+00  0.00000000E+00  0.00000000E+00
  0.00000000E+00  0.00000000E+00  0.00000000E+00
  0.00000000E+00  0.00000000E+00  0.00000000E+00
  0.00000000E+00  0.00000000E+00  0.00000000E+00
  0.00000000E+00  0.00000000E+00  0.00000000E+00
  0.00000000E+00  0.00000000E+00  0.00000000E+00
  0.00000000E+00  0.00000000E+00  0.00000000E+00
  0.00000000E+00  0.00000000E+00  0.00000000E+00
  0.00000000E+00  0.00000000E+00  0.00000000E+00
  0.00000000E+00  0.00000000E+00  0.00000000E+00
  0.00000000E+00  0.00000000E+00  0.00000000E+00
  0.00000000E+00  0.00000000E+00  0.00000000E+00
  0.00000000E+00  0.00000000E+00  0.00000000E+00
  0.00000000E+00  0.00000000E+00  0.00000000E+00
  0.00000000E+00  0.00000000E+00  0.00000000E+00
  0.00000000E+00  0.00000000E+00  0.00000000E+00
  0.00000000E+00  0.00000000E+00  0.00000000E+00
  0.00000000E+00  0.00000000E+00  0.00000000E+00
  0.00000000E+00  0.00000000E+00  0.00000000E+00
  0.00000000E+00  0.00000000E+00  0.00000000E+00
  0.00000000E+00  0.00000000E+00  0.00000000E+00
  0.00000000E+00  0.00000000E+00  0.00000000E+00
  0.00000000E+00  0.00000000E+00  0.00000000E+00
  0.00000000E+00  0.00000000E+00  0.00000000E+00
  0.00000000E+00  0.00000000E+00  0.00000000E+00
  0.00000000E+00  0.00000000E+00  0.00000000E+00
  0.00000000E+00  0.00000000E+00  0.00000000E+00
  0.00000000E+00  0.00000000E+00  0.00000000E+00
