HAT2Cu3 Y-phase
1.0
       24.6000003815         0.0000000000         0.0000000000
       12.3000001907        21.3042252635         0.0000000000
        0.0000000000         0.0000000000        20.0000000000
    N    C    H   Cu
   36   72   36    9
Cartesian
    11.476303841         2.245579067         6.012341976
    13.831314737         3.657437720         6.512913704
    23.794330316        20.803944952         6.016173363
    16.166511226         2.300400043         7.009274960
    26.167761374        19.424682696         6.520662308
    28.484776796        20.813636301         7.013158798
     7.997357376        13.734906211         6.012341976
    30.242344062        12.323044859         6.512913704
    32.579330139        16.480760351         6.016173363
    27.907152704        13.680082537         7.009274960
    30.205904213        17.860025147         6.520662308
    27.888881460        16.471071542         7.013158798
    28.492068578         9.356143656         6.012341976
     3.937269297         6.610713639         6.512913704
    26.105076682        10.713463236         6.016173363
    26.194444633         5.266894900         7.009274960
    23.723884268         9.347644044         6.520662308
    23.768243097         6.646568581         7.013158798
    15.581593886         6.624336384         6.012341976
    15.536390116         9.369766401         6.512913704
    17.968588531         5.267021565         6.016173363
    17.879219297        10.713587679         7.009274960
    20.349777096         6.632836631         6.520662308
    20.305419733         9.333912094         7.013158798
    13.842120445        12.369002575         6.012341976
    11.441906788        13.702568700         6.512913704
    16.211085964        13.757539674         6.016173363
    11.449537646        16.403427657         7.009274960
    16.218849153        16.502623027         6.520662308
    13.857472703        17.814745521         7.013158798
     5.631544570         3.611480005         6.012341976
     8.031754195         2.277913879         6.512913704
     3.262573277         2.222940524         6.016173363
    20.324121695        20.881277647         7.009274960
    15.554812020        20.782084815         6.520662308
    17.916189203        19.469963592         7.013158798
    12.626419239         1.608738455         6.256806850
    13.813415102         2.320341307         6.509110928
    12.635961752         0.152349218         6.258835793
    15.051915498         1.600626776         6.772360802
    26.132223284        20.761405621         6.513106823
    15.061129565         0.193872684         6.774318218
    11.511505329         3.558619489         6.019825935
    12.693265218         4.267088557         6.271014214
    23.846854460        19.491521509         6.027338505
    17.261131900         1.612624138         7.241942883
    25.037848944        18.799400243         6.280493736
    17.270294648         0.212092216         7.243893147
    31.447243224        14.371744124         6.256806850
    30.260248737        13.660143654         6.509110928
    31.437697779        15.828133362         6.258835793
    29.021744034        14.379853263         6.772360802
    30.241442303        16.523302222         6.513106823
    29.012534365        15.786612435         6.774318218
     7.962156845        12.421865630         6.019825935
     6.780393228        11.713391483         6.271014214
    32.526808927        17.793187603         6.027338505
    26.812532030        14.367855902         7.241942883
    31.335812244        18.485307600         6.280493736
    26.803369282        15.768390363         7.243893147
    27.365495954         8.678533381         6.256806850
    27.388257296         7.294766400         6.509110928
    26.099450221         9.398463941         6.258835793
    26.145723271         6.582048479         6.772360802
    24.899286391         8.710059470         6.513106823
    24.922827058         7.277450988         6.774318218
     5.011592834         8.669139808         6.019825935
     5.034267913         7.291464840         6.271014214
    24.942218535        11.324185810         6.027338505
    25.051505640         4.662810684         7.241942883
    23.747327794        10.638811789         6.280493736
    23.834026027         5.355148139         7.243893147
    16.708170542         7.301946024         6.256806850
    16.685401868         8.685716814         6.509110928
    17.974213342         6.582015463         6.258835793
    17.927940659         9.398431561         6.772360802
    19.174373507         7.270423744         6.513106823
    19.150832473         8.703031591         6.774318218
    14.462066344         7.311340232         6.019825935
    14.439393711         8.689017104         6.271014214
    19.131442462         4.656296770         6.027338505
    19.022155175        11.317671578         7.241942883
    20.326334303         5.341667615         6.280493736
    20.239634971        10.625334440         7.243893147
    13.818579778        13.683450128         6.256806850
    12.608818449        14.355619813         6.509110928
    15.075078232        14.419908805         6.258835793
    12.612854736        15.788047344         6.772360802
    15.078983654        15.803483407         6.513106823
    13.826537248        16.499401467         6.774318218
    12.687394255        11.742965842         6.019825935
    11.482954036        12.412166662         6.271014214
    17.321417034        14.459243084         6.027338505
    11.497856332        17.695282381         7.241942883
    17.325312192        15.836735195         6.280493736
    12.706173197        18.403484784         7.243893147
     5.655081113         2.297032293         6.256806850
     6.864844000         1.624865306         6.509110928
     4.398582384         1.560571234         6.258835793
     6.860807346         0.192440315         6.772360802
     4.394677695         0.176999173         6.513106823
    17.947124292        20.785306376         6.774318218
     6.786268927         4.237516737         6.019825935
     7.990706580         3.568310838         6.271014214
     2.152242941         1.521242035         6.027338505
    20.275802092        19.589421653         7.241942883
     2.148348241         0.143749924         6.280493736
    19.067485777        18.881223059         7.243893147
    10.580532596         4.081962467         5.821938515
    12.701088524         5.353225615         6.272678375
    22.922853861        18.955421811         5.830934048
    18.169987352         2.175149014         7.435126305
    25.059961827        17.713468897         6.285192966
    30.486412014        20.966250913         7.438619137
     8.893124721        11.898515033         5.821938515
     6.772572000        10.627254424         6.272678375
    33.450810260        18.329288571         5.830934048
    25.903679510        13.805333565         7.435126305
    31.313697162        19.571235136         6.285192966
    25.887254306        16.318458200         7.438619137
     5.930312206         9.213711817         5.821938515
     5.970980102         6.741620494         6.272678375
    24.939942878        12.392448730         5.830934048
    25.084237464         3.594464272         7.435126305
    22.795827587        11.162630319         6.285192966
    22.899597285         4.836798136         7.438619137
    13.543347998         6.766770763         5.821938515
    13.502680514         9.238858911         6.272678375
    19.133718120         3.588033849         5.830934048
    18.989425733        12.386015767         7.435126305
    21.277833594         4.817852578         6.285192966
    21.174066645        11.143681904         7.438619137
    12.699644977        10.675048315         5.821938515
    10.538419732        11.875871410         6.272678375
    18.247697690        13.927082401         5.830934048
    10.556274268        18.201106773         7.435126305
    18.254703549        16.398849917         6.285192966
    12.724488520        19.471897544         7.438619137
     6.774012706         5.305434264         5.821938515
     8.935241067         4.104611486         6.272678375
     1.225965174         2.053402718         5.830934048
    21.217387719        19.083598530         7.435126305
    13.518960557        20.885857926         6.285192966
    19.049172745        17.812810299         7.438619137
     9.736831041         0.888830752         6.514086723
    15.886831870        18.642352652         6.514086723
    15.886831137        11.540945923         6.514086723
    22.036832698         7.990242559         6.514086723
    28.186829861        11.540945923         6.514086723
    28.186828395        18.642352652         6.514086723
    15.886831320         4.439539513         6.514086723
     3.586829754         4.439536656         6.514086723
     9.736864582        15.091593415         6.514080167
