HAT2Cu3 Y-phase                         
   1.00000000000000     
    24.6000003814999992    0.0000000000000000    0.0000000000000000
    12.3000001907000005   21.3042252635000011    0.0000000000000000
     0.0000000000000000    0.0000000000000000   20.0000000000000000
   N    C    H    Cu
    36    72    36     9
Direct
  0.4266060651418023  0.1185062794887035  0.3110842306942737
  0.5037958348110089  0.1750740910113340  0.3165819881039992
  0.4804897440044205  0.9890297808875742  0.3096938298453738
  0.6311683094115821  0.0987449509687795  0.3464459333380244
  0.6152775969623966  0.9145686451802673  0.3128205300459916
  0.6809302698173647  0.9664990992136127  0.3574918652770802
  0.9899138904321731  0.6316019686820221  0.3110237697283320
  0.9127216614818315  0.5750401467697872  0.3165838576833109
  0.9360432927462317  0.7610787630739098  0.3097171685377081
  0.7853410239671825  0.6513867435999779  0.3464856304531949
  0.8012632703693341  0.8355424405597678  0.3128408931452394
  0.7356020808612191  0.7836285299876341  0.3575162084817419
  0.9517310630221234  0.4132520226366612  0.3111785921305528
  0.0082909286188005  0.2794988858303796  0.3166729288293738
  0.8222403740059857  0.4888562822403585  0.3097564106559000
  0.9319377771945493  0.2284475641674867  0.3464744131175794
  0.7477914869294570  0.4285147293976199  0.3127875570481652
  0.7996945489189138  0.3109494624812109  0.3574655441566134
  0.4648363377957469  0.3368645094737343  0.3110258629449018
  0.4082958041003781  0.4706154322336389  0.3165718559236362
  0.5943100982480256  0.2612303527435603  0.3097009722606328
  0.4846734105249956  0.5216309321546245  0.3464519654557072
  0.6687985999836060  0.3215320743844453  0.3127820753083470
  0.6169081733587706  0.4390932158452159  0.3574822673000763
  0.2464676206599176  0.5934082088144247  0.3109989439560329
  0.1127176966901510  0.6705970451901310  0.3165653885919896
  0.3220715791662866  0.6472730180036922  0.3096959421108954
  0.0616730929692870  0.7979988800306033  0.3464592718616285
  0.2617663314521379  0.7820593816416255  0.3128765550210758
  0.1441848651116793  0.8477216613319483  0.3575341194280683
  0.1700839838014042  0.1567235992480080  0.3109443597060940
  0.3038257826850831  0.0795387572479570  0.3165320210208549
  0.0944841694186099  0.1028443334352597  0.3097112767137275
  0.3548836178083677  0.9521567309459367  0.3464674774956717
  0.1548168390976577  0.9680538540062813  0.3128738733381401
  0.2723988215895363  0.9024019011064887  0.3575217299484982
  0.4899184977801663  0.0835803420939306  0.3174025628846872
  0.5289074743997040  0.1111364001215109  0.3221139451958879
  0.5178943218036236  0.0159142281753088  0.3167794181780414
  0.5949708926555067  0.0721240690936472  0.3354065967778587
  0.5834412344819783  0.9781072689976403  0.3217358895331264
  0.6205669588915688  0.0063321293251054  0.3383856300900099
  0.4032880182860202  0.1812283751095559  0.3075702267871538
  0.4400735634495126  0.2090083527464717  0.3093275600679128
  0.5129878375654967  0.9248876643480946  0.3013840065872627
  0.6906883669145204  0.0587501658213982  0.3651038886239997
  0.5775027547558180  0.8893556766067527  0.3014669775193269
  0.7153121596847358  0.9942488996778645  0.3722205661589134
  0.9266080991214942  0.6665333649744479  0.3173970256121282
  0.8876117193670329  0.6389813744498659  0.3221262631770010
  0.8986403741186586  0.7341962042425797  0.3168007659874129
  0.8215499507892952  0.6779974079319137  0.3354340801620209
  0.8330952932588191  0.7720049706636476  0.3217589664234663
  0.7959634542548460  0.7437886612318461  0.3384088767128269
  0.0132240167521620  0.5688862561824806  0.3074579220147765
  0.9764347615954502  0.5411102695257926  0.3092527864678939
  0.9035516645400078  0.8252221896262640  0.3014097954238417
  0.7258250526613972  0.6913915319694061  0.3651400563058155
  0.8390380154497763  0.8607558760720651  0.3014899111311159
  0.7012114194858293  0.7558927204683030  0.3722512430443574
  0.9167961379355015  0.3848706354342799  0.3174776913441076
  0.9443466534826863  0.3183159308583444  0.3221806248940504
  0.8491339356609980  0.4245590897737545  0.3168281517430805
  0.9053289674881110  0.2912676540526458  0.3354336176326475
  0.8113212863801916  0.3968164689341703  0.3217393644394848
  0.8395375590407316  0.3314688730685154  0.3383802198892071
  0.0144461923363308  0.3738529828788016  0.3076826225818115
  0.0422251356662731  0.3092872517101848  0.3094475019980000
  0.7581015410606859  0.5204981261279460  0.3014152644685794
  0.8919325395823934  0.2089328369865925  0.3651042080428443
  0.7225779179383116  0.4915089524772190  0.3014503638360281
  0.8274217600851819  0.2488249081335799  0.3721986597716028
  0.4997788956651911  0.3652336250030427  0.3173693549970255
  0.4722379907031427  0.4317867703969731  0.3220914731605313
  0.5674391598810935  0.3255252427449481  0.3167609099837699
  0.5112691999407676  0.4588159402713432  0.3353872809826283
  0.6052652569547359  0.3532483078691169  0.3217029732230312
  0.5770585961309965  0.4185943688621226  0.3383540833451980
  0.4021224511109805  0.3762763070337206  0.3074992962491023
  0.3743544176258939  0.4408394440758043  0.3092911459769817
  0.6584530150840068  0.2295685340645451  0.3013921754827258
  0.5246848947003646  0.5411227152523340  0.3651328850672073
  0.6939965043194487  0.2585394439028642  0.3014490242898413
  0.5891885714621381  0.5012136779236509  0.3722471249081467
  0.2180775367287781  0.6567266905037678  0.3173770951962417
  0.1515282879787546  0.6957198447887156  0.3221077212401341
  0.2577730922051962  0.6846903880017114  0.3167868481055884
  0.1244888219451482  0.7617853081499930  0.3354174843915387
  0.2300503920068547  0.7502404368864677  0.3217637461721202
  0.1646961015977488  0.7873681765806579  0.3384074746927693
  0.2070683835209966  0.5700941338018131  0.3074476358946022
  0.1425043567357475  0.6068767517315634  0.3092486048102946
  0.3537285020016340  0.6797658223635539  0.3013924601939815
  0.0421639405958907  0.8575085988616236  0.3651375555365534
  0.3247611218777848  0.7442734821868399  0.3015136092161760
  0.0820621528179867  0.8821113935072825  0.3722767037756828
  0.1984730708843181  0.0934074598423409  0.3173659453772961
  0.2650201861625383  0.0544186692506560  0.3221000865395223
  0.1587849822897234  0.0654377602591508  0.3167971960577449
  0.2920683514478250  0.9883570169538402  0.3354248435235891
  0.1865181152283374  0.9998835724702406  0.3217720814540473
  0.2518728874149576  0.9627622877339866  0.3384114653497906
  0.2094846304691659  0.1800327769868232  0.3073407139319737
  0.2740482478024605  0.1432517240027209  0.3091588201736063
  0.0628383195686393  0.0703388985513350  0.3014038745544840
  0.3744083203350212  0.8926392134460546  0.3651342704671114
  0.0918186085693063  0.0058304582587153  0.3015093905833445
  0.3345239828809394  0.8680175058827790  0.3722557527812139
  0.3524321877142060  0.2110511670198643  0.3024967529087747
  0.4197794133287657  0.2595418848133292  0.3048962003701415
  0.4843711330306175  0.9030165630132966  0.2935068614497583
  0.7201435438060171  0.0793584991443564  0.3761307322582865
  0.6007912147054328  0.8390132376364449  0.2917942987308155
  0.7629069043665064  0.9638395786421246  0.3906236513171786
  0.0640740197053195  0.5390676885937457  0.3023087261747037
  0.9967164184896892  0.4905813563126412  0.3047891639355075
  0.9321700032830227  0.8470946601246657  0.2935304165300065
  0.6963607019994282  0.6707957460421149  0.3761709015569604
  0.8157528834001292  0.9110975840062217  0.2918095060372929
  0.6536191661719702  0.7863152650907235  0.3906540002492247
  0.0442634128846041  0.3948863997387870  0.3026135664160761
  0.0927588976602604  0.2790397065170486  0.3050393137536244
  0.7362319931273658  0.5709857928125425  0.2935498147084162
  0.9125286427022227  0.1588671292147624  0.3761315396620921
  0.6722430717025454  0.5185586208352200  0.2917435145484579
  0.7969929205441351  0.2316544961311501  0.3905940871477958
  0.3723013428778021  0.3552509334664467  0.3023813088756109
  0.3238249581108006  0.4710938136720794  0.3048593772827336
  0.6803117585961959  0.1790814944765801  0.2935283614427003
  0.5040944708110054  0.5911817065860152  0.3761842007061800
  0.7443340555416060  0.2314725378747542  0.2917573248735074
  0.6196233421124190  0.5183639063598775  0.3906773543031016
  0.2281090172828746  0.5192462850309071  0.3023077925963700
  0.1122624676169188  0.5865873717975272  0.3048027487849456
  0.4042084952407954  0.6511397232101224  0.2934837318732418
  0.9920996631833764  0.8869832627756085  0.3761653905877759
  0.3518290201526282  0.7675500940010557  0.2918661190367644
  0.0648942451183437  0.9296967144365661  0.3907166366955951
  0.1884509174352281  0.2308731331818543  0.3021324351187862
  0.3042947159947663  0.1635317038739481  0.3046750934623990
  0.0123599226817136  0.0989613543487572  0.2935046670688330
  0.4244725743724989  0.8631764682097200  0.3761732753891224
  0.0647707804921747  0.9825382822711589  0.2918470903109909
  0.3517064480918950  0.8204230695059955  0.3906764399139785
  0.3923575390799973  0.0343404089721551  0.3152333020428817
  0.2082899042726985  0.8750607263609476  0.3356483818397725
  0.3649115425241007  0.5591477369208355  0.3152363852246312
  0.7083019411067143  0.3750224582753707  0.3356071181654900
  0.8675325052113898  0.5317060277667917  0.3153088560826504
  0.7082697605920991  0.8750594515893901  0.3356143226632862
  0.5489894813119145  0.2184053942719396  0.3152510584483684
  0.0516419004699139  0.1909644130823540  0.3152777506837642
  0.0241838433593196  0.7157744683175481  0.3152481441691101
 
  0.00000000E+00  0.00000000E+00  0.00000000E+00
  0.00000000E+00  0.00000000E+00  0.00000000E+00
  0.00000000E+00  0.00000000E+00  0.00000000E+00
  0.00000000E+00  0.00000000E+00  0.00000000E+00
  0.00000000E+00  0.00000000E+00  0.00000000E+00
  0.00000000E+00  0.00000000E+00  0.00000000E+00
  0.00000000E+00  0.00000000E+00  0.00000000E+00
  0.00000000E+00  0.00000000E+00  0.00000000E+00
  0.00000000E+00  0.00000000E+00  0.00000000E+00
  0.00000000E+00  0.00000000E+00  0.00000000E+00
  0.00000000E+00  0.00000000E+00  0.00000000E+00
  0.00000000E+00  0.00000000E+00  0.00000000E+00
  0.00000000E+00  0.00000000E+00  0.00000000E+00
  0.00000000E+00  0.00000000E+00  0.00000000E+00
  0.00000000E+00  0.00000000E+00  0.00000000E+00
  0.00000000E+00  0.00000000E+00  0.00000000E+00
  0.00000000E+00  0.00000000E+00  0.00000000E+00
  0.00000000E+00  0.00000000E+00  0.00000000E+00
  0.00000000E+00  0.00000000E+00  0.00000000E+00
  0.00000000E+00  0.00000000E+00  0.00000000E+00
  0.00000000E+00  0.00000000E+00  0.00000000E+00
  0.00000000E+00  0.00000000E+00  0.00000000E+00
  0.00000000E+00  0.00000000E+00  0.00000000E+00
  0.00000000E+00  0.00000000E+00  0.00000000E+00
  0.00000000E+00  0.00000000E+00  0.00000000E+00
  0.00000000E+00  0.00000000E+00  0.00000000E+00
  0.00000000E+00  0.00000000E+00  0.00000000E+00
  0.00000000E+00  0.00000000E+00  0.00000000E+00
  0.00000000E+00  0.00000000E+00  0.00000000E+00
  0.00000000E+00  0.00000000E+00  0.00000000E+00
  0.00000000E+00  0.00000000E+00  0.00000000E+00
  0.00000000E+00  0.00000000E+00  0.00000000E+00
  0.00000000E+00  0.00000000E+00  0.00000000E+00
  0.00000000E+00  0.00000000E+00  0.00000000E+00
  0.00000000E+00  0.00000000E+00  0.00000000E+00
  0.00000000E+00  0.00000000E+00  0.00000000E+00
  0.00000000E+00  0.00000000E+00  0.00000000E+00
  0.00000000E+00  0.00000000E+00  0.00000000E+00
  0.00000000E+00  0.00000000E+00  0.00000000E+00
  0.00000000E+00  0.00000000E+00  0.00000000E+00
  0.00000000E+00  0.00000000E+00  0.00000000E+00
  0.00000000E+00  0.00000000E+00  0.00000000E+00
  0.00000000E+00  0.00000000E+00  0.00000000E+00
  0.00000000E+00  0.00000000E+00  0.00000000E+00
  0.00000000E+00  0.00000000E+00  0.00000000E+00
  0.00000000E+00  0.00000000E+00  0.00000000E+00
  0.00000000E+00  0.00000000E+00  0.00000000E+00
  0.00000000E+00  0.00000000E+00  0.00000000E+00
  0.00000000E+00  0.00000000E+00  0.00000000E+00
  0.00000000E+00  0.00000000E+00  0.00000000E+00
  0.00000000E+00  0.00000000E+00  0.00000000E+00
  0.00000000E+00  0.00000000E+00  0.00000000E+00
  0.00000000E+00  0.00000000E+00  0.00000000E+00
  0.00000000E+00  0.00000000E+00  0.00000000E+00
  0.00000000E+00  0.00000000E+00  0.00000000E+00
  0.00000000E+00  0.00000000E+00  0.00000000E+00
  0.00000000E+00  0.00000000E+00  0.00000000E+00
  0.00000000E+00  0.00000000E+00  0.00000000E+00
  0.00000000E+00  0.00000000E+00  0.00000000E+00
  0.00000000E+00  0.00000000E+00  0.00000000E+00
  0.00000000E+00  0.00000000E+00  0.00000000E+00
  0.00000000E+00  0.00000000E+00  0.00000000E+00
  0.00000000E+00  0.00000000E+00  0.00000000E+00
  0.00000000E+00  0.00000000E+00  0.00000000E+00
  0.00000000E+00  0.00000000E+00  0.00000000E+00
  0.00000000E+00  0.00000000E+00  0.00000000E+00
  0.00000000E+00  0.00000000E+00  0.00000000E+00
  0.00000000E+00  0.00000000E+00  0.00000000E+00
  0.00000000E+00  0.00000000E+00  0.00000000E+00
  0.00000000E+00  0.00000000E+00  0.00000000E+00
  0.00000000E+00  0.00000000E+00  0.00000000E+00
  0.00000000E+00  0.00000000E+00  0.00000000E+00
  0.00000000E+00  0.00000000E+00  0.00000000E+00
  0.00000000E+00  0.00000000E+00  0.00000000E+00
  0.00000000E+00  0.00000000E+00  0.00000000E+00
  0.00000000E+00  0.00000000E+00  0.00000000E+00
  0.00000000E+00  0.00000000E+00  0.00000000E+00
  0.00000000E+00  0.00000000E+00  0.00000000E+00
  0.00000000E+00  0.00000000E+00  0.00000000E+00
  0.00000000E+00  0.00000000E+00  0.00000000E+00
  0.00000000E+00  0.00000000E+00  0.00000000E+00
  0.00000000E+00  0.00000000E+00  0.00000000E+00
  0.00000000E+00  0.00000000E+00  0.00000000E+00
  0.00000000E+00  0.00000000E+00  0.00000000E+00
  0.00000000E+00  0.00000000E+00  0.00000000E+00
  0.00000000E+00  0.00000000E+00  0.00000000E+00
  0.00000000E+00  0.00000000E+00  0.00000000E+00
  0.00000000E+00  0.00000000E+00  0.00000000E+00
  0.00000000E+00  0.00000000E+00  0.00000000E+00
  0.00000000E+00  0.00000000E+00  0.00000000E+00
  0.00000000E+00  0.00000000E+00  0.00000000E+00
  0.00000000E+00  0.00000000E+00  0.00000000E+00
  0.00000000E+00  0.00000000E+00  0.00000000E+00
  0.00000000E+00  0.00000000E+00  0.00000000E+00
  0.00000000E+00  0.00000000E+00  0.00000000E+00
  0.00000000E+00  0.00000000E+00  0.00000000E+00
  0.00000000E+00  0.00000000E+00  0.00000000E+00
  0.00000000E+00  0.00000000E+00  0.00000000E+00
  0.00000000E+00  0.00000000E+00  0.00000000E+00
  0.00000000E+00  0.00000000E+00  0.00000000E+00
  0.00000000E+00  0.00000000E+00  0.00000000E+00
  0.00000000E+00  0.00000000E+00  0.00000000E+00
  0.00000000E+00  0.00000000E+00  0.00000000E+00
  0.00000000E+00  0.00000000E+00  0.00000000E+00
  0.00000000E+00  0.00000000E+00  0.00000000E+00
  0.00000000E+00  0.00000000E+00  0.00000000E+00
  0.00000000E+00  0.00000000E+00  0.00000000E+00
  0.00000000E+00  0.00000000E+00  0.00000000E+00
  0.00000000E+00  0.00000000E+00  0.00000000E+00
  0.00000000E+00  0.00000000E+00  0.00000000E+00
  0.00000000E+00  0.00000000E+00  0.00000000E+00
  0.00000000E+00  0.00000000E+00  0.00000000E+00
  0.00000000E+00  0.00000000E+00  0.00000000E+00
  0.00000000E+00  0.00000000E+00  0.00000000E+00
  0.00000000E+00  0.00000000E+00  0.00000000E+00
  0.00000000E+00  0.00000000E+00  0.00000000E+00
  0.00000000E+00  0.00000000E+00  0.00000000E+00
  0.00000000E+00  0.00000000E+00  0.00000000E+00
  0.00000000E+00  0.00000000E+00  0.00000000E+00
  0.00000000E+00  0.00000000E+00  0.00000000E+00
  0.00000000E+00  0.00000000E+00  0.00000000E+00
  0.00000000E+00  0.00000000E+00  0.00000000E+00
  0.00000000E+00  0.00000000E+00  0.00000000E+00
  0.00000000E+00  0.00000000E+00  0.00000000E+00
  0.00000000E+00  0.00000000E+00  0.00000000E+00
  0.00000000E+00  0.00000000E+00  0.00000000E+00
  0.00000000E+00  0.00000000E+00  0.00000000E+00
  0.00000000E+00  0.00000000E+00  0.00000000E+00
  0.00000000E+00  0.00000000E+00  0.00000000E+00
  0.00000000E+00  0.00000000E+00  0.00000000E+00
  0.00000000E+00  0.00000000E+00  0.00000000E+00
  0.00000000E+00  0.00000000E+00  0.00000000E+00
  0.00000000E+00  0.00000000E+00  0.00000000E+00
  0.00000000E+00  0.00000000E+00  0.00000000E+00
  0.00000000E+00  0.00000000E+00  0.00000000E+00
  0.00000000E+00  0.00000000E+00  0.00000000E+00
  0.00000000E+00  0.00000000E+00  0.00000000E+00
  0.00000000E+00  0.00000000E+00  0.00000000E+00
  0.00000000E+00  0.00000000E+00  0.00000000E+00
  0.00000000E+00  0.00000000E+00  0.00000000E+00
  0.00000000E+00  0.00000000E+00  0.00000000E+00
  0.00000000E+00  0.00000000E+00  0.00000000E+00
  0.00000000E+00  0.00000000E+00  0.00000000E+00
  0.00000000E+00  0.00000000E+00  0.00000000E+00
  0.00000000E+00  0.00000000E+00  0.00000000E+00
  0.00000000E+00  0.00000000E+00  0.00000000E+00
  0.00000000E+00  0.00000000E+00  0.00000000E+00
  0.00000000E+00  0.00000000E+00  0.00000000E+00
  0.00000000E+00  0.00000000E+00  0.00000000E+00
  0.00000000E+00  0.00000000E+00  0.00000000E+00
  0.00000000E+00  0.00000000E+00  0.00000000E+00
  0.00000000E+00  0.00000000E+00  0.00000000E+00
  0.00000000E+00  0.00000000E+00  0.00000000E+00
